
units lj                  # Use reduced LJ style units
atom_style atomic         # Uncharged point particles
atom_modify map hash      # Needed for indexing of clusters etc
                          # Used to be able to find where atoms are in relation to each other.

lattice fcc 1.0 spacing 1 1 1
Lattice spacing in x,y,z = 1.5874011 1.5874011 1.5874011
region box block 0 6 0 6 0 6 units lattice
create_box 2 box
Created orthogonal box = (0.0000000 0.0000000 0.0000000) to (9.5244063 9.5244063 9.5244063)
  2 by 3 by 4 MPI processor grid
create_atoms 1 box
Created 864 atoms
  using lattice units in orthogonal box = (0.0000000 0.0000000 0.0000000) to (9.5244063 9.5244063 9.5244063)
  create_atoms CPU = 0.001 seconds
set type 1 type/fraction 2 0.2 78393
Setting atom values ...
  181 settings made for type/fraction
mass 1 1.0
mass 2 1.0
pair_style lj/cut  3.5
pair_modify tail  yes
pair_coeff 1  1  1.0  1.0   # Intearaction between 1 and 1 set with epsilon = 1 and sigma = 1
pair_coeff 1  2  1.5  0.8
pair_coeff 2  2  0.5  0.88

write_data data.0
System init for write_data ...
Neighbor list info ...
  update every 1 steps, delay 10 steps, check yes
  max neighbors/atom: 2000, page size: 100000
  master list distance cutoff = 3.8
  ghost atom cutoff = 3.8
  binsize = 1.9, bins = 6 6 6
  1 neighbor lists, perpetual/occasional/extra = 1 0 0
  (1) pair lj/cut, perpetual
      attributes: half, newton on
      pair build: half/bin/atomonly/newton
      stencil: half/bin/3d
      bin: standard
WARNING: Not all mixed pair coeffs generated from mixing. Use write_data with 'pair ij' option to store all pair coeffs. (../write_data.cpp:312)


#############################
#   M E L T   S Y S T E M   #
#############################

velocity all create 2.4 4344764 mom yes dist gaussian # Assign velocities
                                                    # Temperature 2.4, random number seed, zero linear momentum
                                                                                # Gaussian distribution

timestep 0.002   # simulation timestep
thermo 100       # output thermodynamic data every 100 steps

# Define a fix  in this case with index 1 applied to all
# particles in the simulation. This fix is for simulations
# in the anisotropic NPT ensemble. Note that we use the MTK
# correction.
fix 1 all npt temp 2.4 2.4 0.1 iso 5.68 5.68 0.5 mtk yes tchain 5 pchain 5 # Use NPT ensemble
                                                                         # Set temperature and pressure and damping
                                                                         # Numbers of thermostats in chain and in barostat
run 10000          # run for 10000 steps
Per MPI rank memory allocation (min/avg/max) = 3.616 | 3.616 | 3.616 Mbytes
Step Temp E_pair E_mol TotEng Press Volume 
       0          2.4   -7.0327211            0   -3.4368878   -3.5977146          864 
     100    1.8228813     -5.69583            0   -2.9646728    6.5937145     841.6964 
     200    2.0360717   -5.4507113            0   -2.4001386    6.0312518    881.37029 
     300     2.190698   -5.2026976            0   -1.9204538    5.6104989    915.77176 
     400    2.3225359   -5.0018791            0   -1.5221074    5.6235621    943.77826 
     500    2.4153228   -4.8609628            0   -1.2421719    5.8703777    955.81365 
     600    2.4943593    -4.876756            0   -1.1395475    4.9122186    980.30849 
     700    2.2979819   -4.7379807            0   -1.2949975    5.7550869    974.02013 
     800    2.4763186   -4.8971266            0   -1.1869479    5.8024223    956.04922 
     900     2.352489   -4.9331262            0   -1.4084769    5.0491449    965.99834 
    1000    2.5019632   -4.8649293            0   -1.1163282    6.1865038    952.69462 
    1100    2.2854623    -4.862151            0   -1.4379254    5.2980341    972.56256 
    1200    2.4238712   -4.7284915            0   -1.0968928    6.3316594    966.53291 
    1300    2.3951901     -4.82108            0   -1.2324532    5.3505613      976.938 
    1400    2.4432041   -4.9120534            0   -1.2514889    5.5557015    962.34391 
    1500    2.3291856   -4.7343907            0    -1.244656    6.3500754    957.86485 
    1600     2.388848    -4.897012            0   -1.3178873    5.4668199    965.19698 
    1700    2.3854949   -4.8720507            0   -1.2979499    6.2100893     949.8117 
    1800    2.3355624     -4.89844            0   -1.3991511    5.7303706    954.81217 
    1900    2.4589232   -4.8800841            0   -1.1959682    5.7254714    960.45296 
    2000    2.4239277   -4.8122961            0   -1.1806128    5.3978646    969.93355 
    2100    2.3600837   -4.9367853            0   -1.4007571    5.6625375    952.46895 
    2200    2.3422283   -4.8762431            0    -1.366967    5.9771293    953.47995 
    2300    2.3622025   -4.8014264            0   -1.2622237    6.0924442    959.85758 
    2400    2.4447585   -4.8796585            0    -1.216765    5.3511053    967.31915 
    2500     2.369182   -4.7529949            0    -1.203335    5.7349109    972.93094 
    2600    2.4262541    -4.741483            0    -1.106314    5.9082829    970.36485 
    2700    2.2980133   -4.7269839            0   -1.2839536    6.0633375     966.9442 
    2800    2.3565272   -4.8589519            0   -1.3282523    5.9173204    955.67957 
    2900    2.4464254   -4.9807615            0   -1.3153707    5.1073333    962.38187 
    3000    2.3136438   -4.8110029            0    -1.344554    5.8262776    963.78498 
    3100    2.4720532    -4.785333            0   -1.0815449    5.6878838     971.3107 
    3200    2.3624736   -4.8331996            0   -1.2935908    5.8044673    958.33804 
    3300    2.3714094   -4.8108638            0   -1.2578667     6.178105    956.72728 
    3400    2.3910303   -4.7385573            0   -1.1561629    5.2671592    986.75758 
    3500    2.5207471   -4.7649525            0  -0.98820813     6.091077    966.31889 
    3600    2.3730981   -4.9188295            0   -1.3633024    4.8075633    975.06256 
    3700    2.3749409   -4.8748467            0   -1.3165586    6.0017775    952.92207 
    3800    2.3656043   -4.8592783            0   -1.3149788    6.2491528    950.13486 
    3900    2.3707043   -4.8999891            0   -1.3480484    5.0969274    970.24324 
    4000    2.4822718   -4.8342128            0   -1.1151146    6.2952862    952.63371 
    4100    2.3310262   -4.8885382            0   -1.3960458    5.0046164    975.22958 
    4200    2.4426451   -4.8078599            0    -1.148133    5.5816915    973.24857 
    4300    2.4757155    -4.793096            0   -1.0838209    5.7021493     972.3409 
    4400    2.3800571    -4.911179            0   -1.3452253    5.5279055    957.39494 
    4500    2.4271078   -4.9022085            0   -1.2657606      5.52281    960.55182 
    4600    2.4248837    -4.712801            0   -1.0796853    5.9764997    971.45291 
    4700    2.3643314    -4.700164            0   -1.1577717    5.8183834     978.5003 
    4800    2.3089967   -4.8067683            0   -1.3472819     5.704518    963.44947 
    4900    2.3926138   -4.8898008            0   -1.3050339    5.9202189    952.38646 
    5000     2.423794   -4.7890904            0   -1.1576073    5.6254786    970.25984 
    5100    2.3914967   -4.8185394            0   -1.2354462    5.1289499    976.93536 
    5200    2.2732818   -4.8000289            0   -1.3940529    6.3291806    951.08932 
    5300    2.4119872    -4.907801            0   -1.2940076    5.3891094    963.11915 
    5400    2.4269685   -4.7885549            0   -1.1523157    5.7811697    973.15934 
    5500    2.3178454   -4.7698474            0   -1.2971034    5.8152424    970.03125 
    5600    2.4620174   -4.7872379            0   -1.0984862    5.6473705     970.9215 
    5700    2.4587865   -4.7047252            0   -1.0208142    5.3253929    990.07705 
    5800    2.3786661    -4.695749            0   -1.1318795     5.534923    986.02023 
    5900    2.4789927   -4.7591015            0   -1.0449163    6.2657747     963.2943 
    6000    2.2852536   -4.9171338            0   -1.4932209    4.5824874    980.11888 
    6100    2.4591552   -4.8676218            0   -1.1831583    6.1461662    955.27843 
    6200    2.4705247   -4.9115482            0   -1.2100502    5.0063013    976.53404 
    6300    2.3492862   -4.7473937            0   -1.2275431    5.6843113    971.80356 
    6400    2.3837786   -4.8280674            0    -1.256538    5.9438966    958.16187 
    6500    2.3496231   -4.7949722            0   -1.2746168    5.4529344    975.18984 
    6600    2.5691791   -4.8472498            0  -0.99794152    6.1170059    954.65523 
    6700    2.2205453   -4.7659938            0    -1.439031    5.1578891    981.30704 
    6800     2.501865   -4.8566165            0   -1.1081625    5.7801395    960.58879 
    6900     2.304866   -4.7787334            0   -1.3254359    5.4490969    971.12244 
    7000    2.4720093   -4.8037141            0   -1.0999918    6.0222172    963.27278 
    7100    2.3674999   -4.7708392            0   -1.2236995    5.7119822     973.4107 
    7200    2.4438874   -4.8418545            0   -1.1802662    5.3745544    971.95832 
    7300    2.4435442   -4.9231173            0   -1.2620432    5.5482446    960.95571 
    7400    2.3767329   -4.8541813            0   -1.2932082    4.9959704    979.74212 
    7500    2.4077787   -4.6199435            0   -1.0124555    6.5147109    968.65247 
    7600    2.3215274   -4.7166326            0   -1.2383718    5.9634583    972.20049 
    7700    2.4420777   -4.8970419            0   -1.2381652    5.3712084    965.43181 
    7800    2.3108961   -4.9552356            0   -1.4929034    5.9911668    942.60902 
    7900    2.3705935   -4.9652011            0   -1.4134264    5.3522983    954.24481 
    8000    2.4072547   -4.7555844            0   -1.1488815    5.9320711    968.14692 
    8100    2.4398177   -4.8684302            0   -1.2129395    5.0798128    977.20656 
    8200    2.3971244     -4.92095            0   -1.3294251    5.5630114    959.43568 
    8300    2.3866417   -4.9467621            0   -1.3709431    5.2170798    959.45806 
    8400    2.4748746   -4.8817031            0   -1.1736879    5.3798864    967.28166 
    8500     2.527619   -4.8806862            0   -1.0936459    5.4240567    972.16087 
    8600     2.364458   -4.8297912            0   -1.2872092    5.0252004     975.7343 
    8700    2.4364104   -4.7908571            0   -1.1404713    6.1052995    958.65005 
    8800    2.4346087   -4.7492954            0   -1.1016091    5.2378276    987.75554 
    8900    2.4717399   -4.7653027            0   -1.0619841    5.9327686    968.42186 
    9000     2.374541   -4.7858326            0   -1.2281435    5.4980212    971.53465 
    9100    2.4977836   -4.7957605            0   -1.0534215    5.4870623     978.1523 
    9200    2.4884659   -4.6405996            0  -0.91222097    5.4166885    999.27054 
    9300    2.3534572   -4.5956365            0   -1.0695366    5.5432743    994.72525 
    9400    2.4745898   -4.7713356            0   -1.0637471    6.0460657    966.63895 
    9500    2.3308809   -4.8559709            0   -1.3636962    5.2499065    972.88509 
    9600    2.4785897   -4.8038405            0   -1.0902591    5.8272141     962.1997 
    9700    2.3213464   -4.8345228            0   -1.3565332    5.6209799    968.16131 
    9800    2.5314079   -4.8120652            0    -1.019348    6.2418036    959.55855 
    9900    2.3995763   -4.7511652            0   -1.1559667    4.8872212    995.07771 
   10000    2.3437666   -4.6918226            0   -1.1802417    6.1001962    970.86725 
Loop time of 1.69706 on 24 procs for 10000 steps with 864 atoms

Performance: 1018230.847 tau/day, 5892.540 timesteps/s
99.7% CPU use with 24 MPI tasks x no OpenMP threads

MPI task timing breakdown:
Section |  min time  |  avg time  |  max time  |%varavg| %total
---------------------------------------------------------------
Pair    | 0.39776    | 0.43406    | 0.47215    |   3.1 | 25.58
Neigh   | 0.072949   | 0.0778     | 0.082819   |   1.1 |  4.58
Comm    | 0.78972    | 0.82578    | 0.87115    |   2.3 | 48.66
Output  | 0.0044265  | 0.0044945  | 0.0048314  |   0.1 |  0.26
Modify  | 0.31153    | 0.33123    | 0.34888    |   1.9 | 19.52
Other   |            | 0.0237     |            |       |  1.40

Nlocal:        36.0000 ave          43 max          31 min
Histogram: 1 2 6 4 2 4 3 1 0 1
Nghost:        1183.33 ave        1199 max        1165 min
Histogram: 1 1 3 4 1 4 2 4 2 2
Neighs:        3666.46 ave        4544 max        2995 min
Histogram: 2 1 6 3 2 4 3 0 1 2

Total # of neighbors = 87995
Ave neighs/atom = 101.84606
Neighbor list builds = 847
Dangerous builds = 82

# Equilibrate just above the melting temperature to avoid step fn in T

fix 1 all npt temp 1.25 1.25 0.1 iso 5.68 5.68 0.5 mtk yes tchain 5 pchain 5
run 2000
Per MPI rank memory allocation (min/avg/max) = 3.617 | 3.617 | 3.618 Mbytes
Step Temp E_pair E_mol TotEng Press Volume 
   10000    2.3437666   -4.6918226            0   -1.1802417    6.1001962    970.86725 
   10100    1.8881745   -5.1238236            0   -2.2948399    5.7870039    924.10656 
   10200    1.6445341   -5.5628142            0   -3.0988681    5.6881126    875.01389 
   10300    1.5162839   -5.9540407            0   -3.6822473    6.0161863    831.35562 
   10400    1.3678086   -6.2151504            0   -4.1658122    5.4884204    816.50593 
   10500    1.2926182   -6.3948789            0   -4.4581957    5.5786086    799.36758 
   10600    1.2402217   -6.4836428            0   -4.6254633    5.5206759    793.18803 
   10700    1.2641192    -6.501687            0   -4.6077028    5.7083003    789.05083 
   10800    1.2153187   -6.5807719            0   -4.7599037    5.0807761    791.90343 
   10900    1.2730822   -6.5458388            0   -4.6384257    5.0207582    793.59643 
   11000    1.2951129   -6.5166676            0   -4.5762468    5.0176616    798.08963 
   11100    1.2443925   -6.5219276            0   -4.6574993    5.6982914    787.67117 
   11200    1.2016515   -6.4735613            0   -4.6731702    6.4293852    783.22837 
   11300    1.2336418   -6.5920699            0    -4.743749    5.7665372    782.63944 
   11400    1.2304791   -6.4894805            0   -4.6458982    6.2748459    783.31379 
   11500    1.2721727   -6.4792471            0   -4.5731968    6.6998104    780.88014 
   11600    1.1898414    -6.492606            0   -4.7099097    6.2257035    785.69137 
   11700    1.2717327   -6.5814416            0   -4.6760504    5.4854268      787.525 
   11800    1.2272573   -6.4881142            0   -4.6493589     5.235245    796.08244 
   11900    1.2307374   -6.5895406            0   -4.7455712    5.0240067    793.48107 
   12000    1.3025412   -6.6097867            0   -4.6582362    5.3629848    786.94145 
Loop time of 0.375843 on 24 procs for 2000 steps with 864 atoms

Performance: 919532.534 tau/day, 5321.369 timesteps/s
99.7% CPU use with 24 MPI tasks x no OpenMP threads

MPI task timing breakdown:
Section |  min time  |  avg time  |  max time  |%varavg| %total
---------------------------------------------------------------
Pair    | 0.093041   | 0.10265    | 0.11239    |   1.9 | 27.31
Neigh   | 0.013265   | 0.01428    | 0.015432   |   0.5 |  3.80
Comm    | 0.17204    | 0.18333    | 0.19442    |   1.6 | 48.78
Output  | 0.00090057 | 0.00091597 | 0.00097022 |   0.0 |  0.24
Modify  | 0.063695   | 0.067035   | 0.070934   |   0.7 | 17.84
Other   |            | 0.007631   |            |       |  2.03

Nlocal:        36.0000 ave          40 max          31 min
Histogram: 1 2 2 2 5 2 1 3 3 3
Nghost:        1390.29 ave        1411 max        1374 min
Histogram: 2 2 3 2 7 4 0 1 1 2
Neighs:        4531.04 ave        5118 max        3841 min
Histogram: 1 1 2 4 2 2 5 3 1 3

Total # of neighbors = 108745
Ave neighs/atom = 125.86227
Neighbor list builds = 130
Dangerous builds = 0

#############################
# L I N E A R  Q U E N C H  #
#############################

# Define solid atoms. This closely follows ten Wolde  Ruiz-Montero and Frenkel  Faraday Discuss  1996  104  93-110
# Compute components of the per-atom q6 vector
compute q6 all orientorder/atom degrees 1 6 components 6 nnn NULL cutoff 1.3 # compute the Q6 parameter.
                                                                             # Use all neighbours within 1.3 unit cell.

# get number of connections
compute coord_number all coord/atom orientorder q6 0.5

# An atom is solid if it has 8 or more connections (of a possible 14)
variable is_solid atom c_coord_number>=8
group solid dynamic all var is_solid    # Must be dynamic to update
dynamic group solid defined

# do clustering
compute cluster solid cluster/atom 1.3 # Create a cluster where all atoms within are solid and max 1.3 units from another member

# define chunks one chunk per cluster
compute clus_chunks solid chunk/atom c_cluster nchunk every compress yes  # Says which atoms are in which chunk

# count the size of each chunk
compute size_chunks solid property/chunk clus_chunks count


# Find the maximum entry in the vector of chunk sizes
variable max_n equal max(c_size_chunks)


# Thermo style which includes this variable
# thermo_style custom step temp pe vol v_max_n

thermo ${N}  # Print the thermo information every 100 steps
thermo 100  

# Reset the npt fix at a lower temperature (below freezing)
fix 1  all npt temp  ${temp} ${temp}  0.1  iso  5.68  5.68  0.5  mtk yes tchain  5  pchain  5
fix 1  all npt temp  1 ${temp}  0.1  iso  5.68  5.68  0.5  mtk yes tchain  5  pchain  5
fix 1  all npt temp  1 1  0.1  iso  5.68  5.68  0.5  mtk yes tchain  5  pchain  5

dump dmp2 all dcd ${N} traj.dcd
dump dmp2 all dcd 100 traj.dcd

compute msd all msd com yes
variable twopoint equal c_msd[4]/6/(step*dt+1.0e-6)
fix 9 all vector 10 c_msd[4]
variable fit equal slope(f_9)/6/(10*dt)
thermo_style custom step temp pe c_msd[4] v_twopoint v_fit v_max_n

fix 1 all npt temp 1.25 ${temp} 0.1 iso 5.68 5.68 0.5 mtk yes tchain 5 pchain 5
fix 1 all npt temp 1.25 1 0.1 iso 5.68 5.68 0.5 mtk yes tchain 5 pchain 5
run 100000 # 5000000  # Run for this many steps
Neighbor list info ...
  update every 1 steps, delay 10 steps, check yes
  max neighbors/atom: 2000, page size: 100000
  master list distance cutoff = 3.8
  ghost atom cutoff = 3.8
  binsize = 1.9, bins = 5 5 5
  4 neighbor lists, perpetual/occasional/extra = 1 3 0
  (1) pair lj/cut, perpetual
      attributes: half, newton on
      pair build: half/bin/atomonly/newton
      stencil: half/bin/3d
      bin: standard
  (2) compute orientorder/atom, occasional
      attributes: full, newton on
      pair build: full/bin/atomonly
      stencil: full/bin/3d
      bin: standard
  (3) compute coord/atom, occasional
      attributes: full, newton on
      pair build: full/bin/atomonly
      stencil: full/bin/3d
      bin: standard
  (4) compute cluster/atom, occasional
      attributes: full, newton on
      pair build: full/bin/atomonly
      stencil: full/bin/3d
      bin: standard
Per MPI rank memory allocation (min/avg/max) = 9.581 | 9.585 | 9.588 Mbytes
Step Temp PotEng c_msd[4] v_twopoint v_fit v_max_n 
   12000    1.3025412   -6.6097867            0            0 8.3333333e+20            1 
   12100    1.2093309   -6.6158277   0.06191458 0.00042640894  0.055156165       -1e+20 
   12200    1.2472337   -6.6070931   0.12054839 0.00082341794  0.052733247            1 
   12300    1.2684278   -6.5653278   0.17807271 0.0012064546  0.050726419            1 
   12400    1.2023468   -6.6077645   0.23611669 0.0015868057  0.049567582            1 
   12500    1.2012326   -6.6280339   0.29257286 0.0019504857  0.048854485            1 
   12600    1.2714521   -6.6065479   0.33818994 0.0022367059  0.047764274       -1e+20 
   12700    1.3185809     -6.54643   0.38743998  0.002542257    0.0466385       -1e+20 
   12800    1.2318314    -6.535489   0.44314714 0.0028850724  0.046141587            1 
   12900    1.1875273   -6.5759108   0.49075693 0.0031702643  0.045466762       -1e+20 
   13000    1.2910399   -6.5790439    0.5319317 0.0034098185  0.044650354            1 
   13100    1.2106707   -6.5636074   0.57557939 0.0036614464   0.04377141            1 
   13200    1.2202294   -6.5669884   0.63202154 0.0039900348  0.043203729            1 
   13300    1.2823031   -6.5875968   0.67452599 0.0042263532  0.042808118            1 
   13400    1.2603873   -6.5930044   0.74283711 0.0046196336  0.042676971            1 
   13500    1.2157656   -6.4952393   0.80163474 0.0049483624   0.04291102            1 
   13600    1.2631896   -6.5674977   0.83082278 0.0050908257  0.042865199       -1e+20 
   13700    1.2296506   -6.6161289   0.88192059 0.0053644803  0.042589264            1 
   13800     1.230978   -6.6204944   0.91840314 0.0055459125   0.04229158            1 
   13900     1.242448   -6.5719708   0.97593301 0.0058509171  0.042055212            1 
   14000    1.3099263     -6.56728     1.009952  0.006011619  0.041851734            1 
   14100    1.2598788   -6.6018767    1.0420432 0.0061586473  0.041520387            2 
   14200    1.2436834   -6.6164194    1.0870585 0.0063794509  0.041175158       -1e+20 
   14300    1.1662479    -6.511846    1.1450232 0.0066726291  0.040898378            1 
   14400    1.1791276   -6.5315236    1.2038071 0.0069664761   0.04073901            1 
   14500     1.289269   -6.5013883    1.2510289 0.0071898209  0.040674635            2 
   14600    1.2051926   -6.5250053    1.3026087 0.0074349808   0.04065802            1 
   14700    1.2226115   -6.6803567    1.3639935 0.0077323892  0.040662353            1 
   14800    1.2394036   -6.6029111    1.4180304 0.0079844049  0.040716912       -1e+20 
   14900    1.2622667   -6.6114212    1.4649686 0.0081933363  0.040778646       -1e+20 
   15000    1.2470038   -6.6396717    1.5130363 0.0084057569  0.040825197            1 
   15100    1.2577961   -6.6200964    1.5967759 0.0088122288   0.04093745       -1e+20 
   15200    1.1668425    -6.575604    1.6591154 0.0090960271  0.041122797            2 
   15300    1.2582916   -6.6654381    1.7010822 0.0092651535  0.041273309            1 
   15400      1.21826   -6.6108854    1.7616829 0.0095329161  0.041468233            1 
   15500    1.2864518   -6.5821159    1.8218867 0.0097950892  0.041676326       -1e+20 
   15600    1.2210732   -6.5488399     1.895201  0.010123937  0.041923391       -1e+20 
   15700     1.228081   -6.5428892    1.9598224  0.010402454  0.042203733            2 
   15800     1.256318   -6.5137555    2.0010756  0.010554196  0.042406981            1 
   15900    1.1934659   -6.5496747    2.0754925  0.010877843  0.042613727            1 
   16000    1.1503843   -6.5555738    2.0978468  0.010926285  0.042742206       -1e+20 
   16100    1.2708508   -6.6296526    2.1434483  0.011094452  0.042824755            1 
   16200    1.1996199   -6.5821942    2.1763875  0.011195409   0.04287599            1 
   16300    1.2012181   -6.5444623    2.2309342  0.011405594  0.042900364            1 
   16400    1.2531349    -6.553728    2.2872493  0.011622201   0.04293893            1 
   16500    1.2569977   -6.5275664    2.3155494  0.011694694  0.042966078            1 
   16600    1.2289841   -6.5583537    2.3339612  0.011716672  0.042932568            1 
   16700    1.2349674   -6.4927907    2.3851574  0.011901983  0.042838948            2 
   16800    1.2432029   -6.5160055    2.4073216  0.011941079  0.042722759            1 
   16900    1.2571454    -6.607593    2.4690434   0.01217477  0.042596513            1 
   17000     1.200788   -6.6521195     2.525061   0.01237775  0.042473291            2 
   17100    1.2540768   -6.6525053    2.5600185  0.012475723  0.042367867       -1e+20 
   17200    1.2845527   -6.5952182    2.6280239  0.012732673  0.042285426       -1e+20 
   17300    1.2616393   -6.5940677    2.6773953  0.012896894  0.042247948       -1e+20 
   17400    1.1913414   -6.5715987    2.6950665  0.012907406  0.042164478            1 
   17500    1.3068069   -6.6027702    2.7542617  0.013115531  0.042084899            1 
   17600    1.1691692   -6.5092632    2.8028343  0.013270995  0.042026153            1 
   17700    1.3083132   -6.5799704    2.8855703  0.013585547  0.041992802       -1e+20 
   17800     1.204757   -6.5595374    2.9695025  0.013902165  0.042013914            1 
   17900    1.2337866   -6.6190204    3.0074801  0.014001304  0.042020212            1 
   18000    1.2998277   -6.6243362    3.0786552  0.014253033  0.042032761            1 
   18100    1.1977535   -6.5402801    3.1432365  0.014471622  0.042074563       -1e+20 
   18200    1.2352284   -6.6863634    3.1554859  0.014448195  0.042097453            1 
   18300    1.2458604    -6.644295    3.1844474  0.014501126  0.042083457            1 
   18400    1.2337906   -6.5942717    3.2266557  0.014613476  0.042061882            1 
   18500    1.2798597   -6.5994112    3.2435891  0.014610761  0.042017849       -1e+20 
   18600     1.268744   -6.5743023    3.2651986  0.014629025    0.0419319            1 
   18700    1.1713033   -6.5471214    3.3002509     0.014707  0.041815224       -1e+20 
   18800    1.2563975   -6.5186653     3.293435  0.014598559  0.041696828            3 
   18900    1.2240032   -6.5909458    3.3234116   0.01465349  0.041534354            1 
   19000    1.2070942   -6.6799302    3.3599563   0.01473665  0.041381255            1 
   19100    1.2276631   -6.7279255    3.4257657  0.014946621  0.041222634            1 
   19200    1.1991855   -6.6801625    3.5063406  0.015218492  0.041094462       -1e+20 
   19300     1.276791    -6.662689     3.513636   0.01517114  0.040981886            1 
   19400    1.2188741   -6.5856867    3.5573158  0.015280566  0.040881847       -1e+20 
   19500     1.196511   -6.6143434    3.5908114  0.015345347  0.040772199            2 
   19600    1.2814054   -6.6206289    3.6517667  0.015526218  0.040658007            1 
   19700    1.2259389   -6.6359584    3.6790715  0.015562908  0.040549162            2 
   19800    1.2138238   -6.6136865    3.7138802  0.015630808  0.040429934            2 
   19900    1.2597215   -6.6575261    3.8126613  0.015965918  0.040335281            1 
   20000    1.2204068   -6.6653959    3.8875399  0.016198083  0.040278631            1 
   20100    1.1387079   -6.5935867    3.8990631  0.016165269   0.04021185            1 
   20200    1.2653454   -6.5967237    3.9384041  0.016247541  0.040150001            1 
   20300    1.2587111   -6.6408855     3.963423  0.016270209  0.040085918            1 
   20400    1.1809886   -6.5983312    3.9564657  0.016162033  0.039973923            2 
   20500    1.2227723   -6.5594633    4.0515114  0.016469558  0.039886093       -1e+20 
   20600    1.2968501   -6.5936909    4.1066974  0.016612853  0.039824952       -1e+20 
   20700    1.2075537   -6.5631595    4.1668577  0.016774789  0.039774213       -1e+20 
   20800    1.2008853   -6.6128449    4.2015333  0.016833066  0.039727459            2 
   20900    1.2534651   -6.6093216    4.2549386  0.016965464  0.039672482            2 
   21000    1.2130073   -6.6827435    4.3151977    0.0171238  0.039637333            1 
   21100    1.1675908    -6.711217     4.365265  0.017240383  0.039593963            1 
   21200    1.2035649    -6.661473     4.460292  0.017532594  0.039561746       -1e+20 
   21300    1.2656237   -6.5844837    4.4967921  0.017593083  0.039553609            1 
   21400    1.2050961   -6.5718683    4.5311681  0.017644735  0.039536567            1 
   21500    1.2064101   -6.6212644    4.5777502  0.017743217  0.039513023            1 
   21600    1.2012019   -6.6845251    4.6068349  0.017773282  0.039492214            1 
   21700    1.2339895   -6.6464936    4.6839487  0.017987514  0.039486127            1 
   21800    1.2587262   -6.6330064    4.7521928  0.018165874  0.039495907       -1e+20 
   21900    1.2175391   -6.4854685    4.8279358   0.01837114  0.039503422            1 
   22000     1.224404    -6.554398     4.828252  0.018288833  0.039511785            1 
   22100    1.1994445   -6.5612984     4.884109    0.0184167  0.039507255            1 
   22200    1.2259881   -6.5287587    4.8918486  0.018362795  0.039506012            3 
   22300    1.2179434    -6.608994    4.9617259  0.018541576  0.039500803            1 
   22400    1.2402828   -6.5922013    5.0438898  0.018764471  0.039502593            1 
   22500    1.2106962   -6.5614205    5.1118432  0.018932752  0.039507023            1 
   22600    1.2080752   -6.5238735    5.2343911  0.019300852  0.039531474       -1e+20 
   22700    1.2213281   -6.6170898    5.2518152  0.019279791  0.039560857            1 
   22800    1.1908119   -6.6567159     5.272374  0.019270372  0.039585356            1 
   22900    1.2438146   -6.7028988    5.2943324  0.019266129  0.039598192            1 
   23000     1.195151   -6.6337738    5.3538184  0.019397892  0.039612046            2 
   23100     1.272416    -6.620919    5.4320953  0.019596303  0.039629421       -1e+20 
   23200    1.2011404   -6.6195812    5.4790078  0.019680344   0.03965836       -1e+20 
   23300    1.1527953   -6.6791849    5.5130985  0.019717805  0.039675254            2 
   23400    1.2526405    -6.700164    5.5510869  0.019768828  0.039685583            1 
   23500     1.290077   -6.6618143    5.6183662  0.019923284  0.039706891            1 
   23600    1.1687463   -6.6296955    5.6672488  0.020011471  0.039734938       -1e+20 
   23700      1.19367   -6.7037199    5.6479354  0.019859126  0.039735821            1 
   23800    1.2494367   -6.6952701    5.7145155  0.020008807  0.039732161            1 
   23900    1.2065047   -6.6183581    5.7672671   0.02010902  0.039733753       -1e+20 
   24000    1.2125948   -6.5960686    5.8167544  0.020197063  0.039725971            4 
   24100    1.1841544    -6.643688    5.8341729  0.020173488  0.039712941            3 
   24200    1.2286335     -6.64985     5.892909  0.020292386  0.039704206            2 
   24300     1.223276   -6.5120564    6.0486825  0.020743081   0.03971352            1 
   24400      1.24206   -6.5487216    6.1284118  0.020930368  0.039753328            1 
   24500    1.2624332   -6.6946398    6.0718927  0.020652696  0.039780922            1 
   24600    1.2068138   -6.6561719    6.1469354  0.020822951    0.0397948            2 
   24700    1.1919758   -6.6291726     6.203992  0.020931147  0.039801625            1 
   24800    1.2492818   -6.6195256    6.2825041  0.021110564  0.039820874            1 
   24900    1.1664086   -6.6533271    6.3782905  0.021346353  0.039851239            2 
   25000    1.2123895   -6.6225306    6.3916322   0.02130544  0.039878008            1 
   25100    1.2217811   -6.6086006    6.4089275  0.021277979  0.039893589            1 
   25200    1.1832982   -6.6026773    6.4284545  0.021258116  0.039905632            1 
   25300    1.2956507   -6.6249497     6.498761  0.021405668   0.03992149            2 
   25400    1.1864641   -6.5788969    6.6120539   0.02169309  0.039944893            1 
   25500    1.1953416   -6.6708495    6.6495666  0.021730609  0.039965672            2 
   25600    1.1779681   -6.6507451    6.7610722  0.022008698  0.039990584            1 
   25700    1.2323945   -6.6168787    6.7828828  0.021993783   0.04001997       -1e+20 
   25800    1.2570272   -6.6747617     6.806222  0.021983921  0.040048599            1 
   25900    1.2627623   -6.6727255    6.8484205  0.022034814  0.040089178            1 
   26000    1.1801077   -6.6452783    6.9348946  0.022227226  0.040118194       -1e+20 
   26100    1.2170704   -6.6176725    7.0094195  0.022380011  0.040149512            1 
   26200    1.1860936   -6.6219593    7.0442553  0.022405392  0.040180624       -1e+20 
   26300    1.2356538   -6.6288854    7.0412154  0.022310568  0.040206212       -1e+20 
   26400    1.2364983   -6.6474306    7.0473537  0.022245434  0.040222715            1 
   26500    1.2002131   -6.7299404    7.0727906  0.022241479  0.040227966            1 
   26600    1.1673571   -6.6205995    7.0977581  0.022236084  0.040222177            1 
   26700     1.248268   -6.6094247    7.1421519   0.02229136  0.040222447            1 
   26800    1.2171653    -6.623628    7.2163785  0.022438987   0.04022546            1 
   26900    1.1689829   -6.5544154    7.3529787  0.022778744  0.040232156            1 
   27000      1.22022   -6.5397255    7.3782242  0.022772296  0.040239572       -1e+20 
   27100    1.2242625   -6.6567194    7.2894964  0.022415425   0.04024112       -1e+20 
   27200    1.2225335   -6.6512444    7.3163085   0.02241516  0.040226748            2 
   27300     1.231052   -6.6467929     7.400365  0.022589636  0.040213962            1 
   27400    1.1682091   -6.6687133      7.44654  0.022647627  0.040201503            1 
   27500    1.2627324   -6.6658146    7.5003765  0.022728413  0.040187706            1 
   27600    1.1956542   -6.5619227    7.5803749  0.022887605  0.040185788       -1e+20 
   27700    1.2430965   -6.5788315    7.5818021  0.022809272  0.040179275       -1e+20 
   27800    1.2425234   -6.5176334    7.6930609  0.023060734  0.040172458       -1e+20 
   27900    1.2320686   -6.6147724    7.6507502  0.022851703  0.040162369            5 
   28000    1.1694325   -6.6064192    7.7145081  0.022959845  0.040149575       -1e+20 
   28100    1.2304524   -6.5869911    7.6781272  0.022770246  0.040128086            1 
   28200    1.1710669   -6.6225745    7.6790766  0.022692306  0.040093511            1 
   28300    1.2349838   -6.6511546    7.7137469  0.022714213   0.04005867            2 
   28400    1.2348896   -6.6423469    7.7368804  0.022702113   0.04002489            1 
   28500    1.1699692   -6.6596038    7.7893571  0.022775898  0.039983528            1 
   28600    1.1756994   -6.6739368    7.8342077  0.022826945  0.039936927            4 
   28700      1.20282   -6.5893027    7.8717701  0.022856475  0.039895075            2 
   28800    1.2590376   -6.6734007     7.911467  0.022891976   0.03985902            3 
   28900    1.1979743   -6.6437608    7.8935483  0.022761096  0.039815509            2 
   29000    1.1735932     -6.63363    7.9127719   0.02273785  0.039766654            2 
   29100    1.1991229   -6.5618303    8.0367306  0.023014692  0.039721696       -1e+20 
   29200    1.2294827   -6.6238976    8.0972208  0.023108506  0.039684916       -1e+20 
   29300    1.2189221   -6.6142283    8.0890653  0.023006442  0.039647989            1 
   29400    1.1236789   -6.5843127    8.0753458  0.022889302  0.039602684            1 
   29500    1.2228129     -6.61038    8.1247581  0.022951294  0.039552544            1 
   29600    1.2186207   -6.6346406    8.1756314   0.02301698  0.039505238            3 
   29700    1.1734554    -6.617659    8.1394214  0.022837882  0.039454906            1 
   29800    1.2549314   -6.6526328    8.2604781  0.023099771  0.039406985            1 
   29900     1.166499   -6.6763035    8.2962933  0.023122333  0.039358441       -1e+20 
   30000    1.1554786   -6.6753955    8.3172593  0.023103498  0.039304016            1 
   30100    1.2012128   -6.5864908     8.387365  0.023220833  0.039258517            1 
   30200    1.2516201   -6.6424126    8.3521087  0.023046657  0.039215098            1 
   30300    1.2283297   -6.6721995    8.3035335  0.022837001  0.039161719            1 
   30400    1.1736933   -6.6342638    8.3475778  0.022882614  0.039099535       -1e+20 
   30500    1.2274002   -6.6332837    8.4204911  0.023006806  0.039039792            1 
   30600    1.2005624   -6.7312546    8.4892608  0.023118902  0.038986179            1 
   30700    1.1821533   -6.7054752    8.5001016  0.023073022  0.038925194            1 
   30800    1.1989651   -6.5848019    8.5911942  0.023244573  0.038872531            1 
   30900     1.213809   -6.6707221    8.6498915  0.023327647  0.038826653       -1e+20 
   31000     1.166334   -6.6218904    8.7232978  0.023449725  0.038786746            1 
   31100    1.1852944   -6.6149449    8.7831878  0.023534801  0.038749894            1 
   31200    1.2274293   -6.6179939    8.8219197  0.023562819  0.038716917            2 
   31300    1.2038684   -6.6498097    8.8974898  0.023688737  0.038686859            3 
   31400    1.1560832   -6.6719588    8.9652122  0.023793026  0.038657151            2 
   31500    1.1467415   -6.7199621    9.0381684  0.023910498  0.038626722            1 
   31600    1.2218296   -6.6864657    9.0385564  0.023835855   0.03859664       -1e+20 
   31700      1.19501    -6.652271    9.0445424  0.023776399  0.038565821            1 
   31800    1.2418023   -6.7141397    9.1178602  0.023893763  0.038537866            1 
   31900    1.2180786   -6.7594884    9.2315806  0.024115936  0.038517729            1 
   32000    1.2527355   -6.7710152    9.2600288  0.024114658  0.038499103            1 
   32100    1.1488871   -6.6417042    9.3752068  0.024338543  0.038478647            1 
   32200     1.165957   -6.6196577    9.3744976  0.024261122  0.038457649            1 
   32300    1.2690899   -6.6332463    9.3705544  0.024175837  0.038435812            1 
   32400    1.2156486   -6.6721288    9.4630044  0.024339003  0.038419213            4 
   32500    1.2003576   -6.7356924     9.458837  0.024253428  0.038398155            1 
   32600    1.2370664    -6.658872    9.5284207  0.024356903  0.038375994            1 
   32700    1.1949888   -6.6625233    9.5510373  0.024340054  0.038352508       -1e+20 
   32800    1.1494029   -6.6708802    9.6215876   0.02444509  0.038330483       -1e+20 
   32900    1.2201553   -6.6262503    9.6709332  0.024495778  0.038312753            4 
   33000    1.2030615   -6.7011894      9.62618  0.024308535  0.038290856            1 
   33100    1.2269892   -6.7382603    9.7876002  0.024641491  0.038272896            2 
   33200    1.2045478   -6.6837082    9.7906925  0.024575031  0.038259286       -1e+20 
   33300    1.1502934   -6.7511446    9.8290119  0.024597127  0.038241635            2 
   33400    1.1989826   -6.6856388    9.9120057  0.024730553  0.038223879            1 
   33500    1.2171968   -6.6565045    10.000697  0.024877356  0.038214763       -1e+20 
   33600    1.1946185   -6.7130014    10.015669  0.024840448  0.038206013            1 
   33700    1.1957801    -6.738635    10.112037  0.025005036  0.038197759       -1e+20 
   33800    1.1603397   -6.6699681    10.197426  0.025141582  0.038188202       -1e+20 
   33900    1.2114439    -6.692232     10.24258  0.025178418  0.038181158            1 
   34000    1.1792501   -6.6310451    10.266547  0.025163105   0.03818001            1 
   34100    1.2364476    -6.667338    10.242727  0.025031102  0.038178932            1 
   34200    1.1965185   -6.6153898    10.390206  0.025317265  0.038177897            1 
   34300    1.1837902   -6.6172684    10.433121  0.025347719    0.0381767       -1e+20 
   34400    1.1579241   -6.6256906    10.458066  0.025334462  0.038175107            1 
   34500    1.1787398   -6.5985929    10.556374  0.025498488  0.038175548            1 
   34600    1.2146781   -6.5246251    10.617796  0.025572727  0.038181653       -1e+20 
   34700    1.2033345   -6.6234576    10.618794  0.025501427  0.038187211            1 
   34800    1.1962773   -6.6289883    10.688435   0.02559491  0.038189448            1 
   34900    1.2727078   -6.5813883    10.835534  0.025872813  0.038197809       -1e+20 
   35000    1.1931153   -6.5644825    10.918515  0.025996464  0.038211564            1 
   35100     1.183434    -6.647293    10.841042  0.025738466  0.038219134            1 
   35200    1.1888857   -6.6555056    10.869022  0.025731587  0.038224966       -1e+20 
   35300    1.1954415    -6.632024    10.867542  0.025655197  0.038228257       -1e+20 
   35400     1.119161   -6.6235137     10.87618   0.02560306  0.038228396       -1e+20 
   35500    1.2096578   -6.7867038    10.845821  0.025459673   0.03822223            2 
   35600    1.1936087   -6.7246909    10.982901  0.025709038  0.038213947            1 
   35700    1.1822636   -6.7241512    10.966007  0.025597589  0.038200649            1 
   35800    1.1569467   -6.6830131    10.969904  0.025535159  0.038186498            1 
   35900    1.2345418   -6.6473933    11.080644  0.025721085  0.038179428            2 
   36000    1.2294152   -6.6865298     11.15334  0.025817916  0.038175185            1 
   36100    1.1758559   -6.7336815    11.256925  0.025985515  0.038170253            1 
   36200    1.1673417   -6.6339246    11.413051  0.026273136  0.038172015            1 
   36300    1.2012239   -6.6210504    11.390593  0.026149202   0.03817822            1 
   36400    1.2202615   -6.6432322    11.366079  0.026021242  0.038181894            1 
   36500    1.1495729   -6.6756473    11.363563  0.025944209  0.038180519            1 
   36600    1.1569953   -6.6580693    11.504171  0.026193467  0.038179209            1 
   36700    1.1781884    -6.670031    11.616453   0.02637705  0.038182621            2 
   36800    1.1095822   -6.6715632    11.747846  0.026602912  0.038187385            1 
   36900    1.1960334    -6.723347    11.706513  0.026437473  0.038192264       -1e+20 
   37000    1.2339805   -6.6331174    11.701056  0.026353728  0.038199179            1 
   37100    1.2013078   -6.6668886    11.679257   0.02623373   0.03820133            1 
   37200    1.1899466   -6.7728373    11.761478  0.026347398  0.038197931            1 
   37300    1.1785856    -6.693943    11.795233  0.026352174  0.038195533            2 
   37400    1.1678243   -6.5817227    11.910071  0.026537591  0.038195933       -1e+20 
   37500     1.182034   -6.5984214     11.98881    0.0266418  0.038201093            1 
   37600    1.2187314   -6.7397795    11.943755  0.026471089    0.0382038            1 
   37700    1.1661999   -6.6724876    11.950714  0.026416255  0.038201958       -1e+20 
   37800    1.2172491   -6.6147568    12.067745  0.026604376   0.03820229            1 
   37900    1.1695907   -6.6288507    12.103283  0.026612319  0.038202807            2 
   38000    1.2097403   -6.7137367    12.063424  0.026454877  0.038202274       -1e+20 
   38100    1.1858895   -6.7713249    12.062911  0.026384319  0.038197299            1 
   38200    1.1700875   -6.6673936    12.140083  0.026483601  0.038192605            1 
   38300    1.1701261   -6.6875987    12.234825  0.026620594  0.038188978       -1e+20 
   38400    1.1974374   -6.7352179    12.259724  0.026605303  0.038183783       -1e+20 
   38500    1.1341416   -6.6498409    12.363283  0.026760353   0.03817913       -1e+20 
   38600    1.1979109   -6.6417914    12.323848  0.026605888  0.038171537            2 
   38700    1.1894118   -6.6427941    12.336591  0.026564581  0.038167418            1 
   38800    1.2071093   -6.5891323    12.343787   0.02651157  0.038164416            2 
   38900    1.1547481    -6.649416    12.417826  0.026602027  0.038160003       -1e+20 
   39000    1.1868279   -6.7832686    12.394288  0.026483521  0.038148193            1 
   39100     1.125093   -6.7198132    12.495207  0.026630875  0.038135233            1 
   39200    1.2049609    -6.709265    12.592903  0.026770626  0.038127493            1 
   39300     1.210348   -6.7088402    12.645534  0.026814109  0.038122558            1 
   39400    1.2326516   -6.7167755    12.634195  0.026722071  0.038116635            3 
   39500    1.1830492   -6.7662924    12.695686  0.026784148  0.038108297            1 
   39600    1.1676187   -6.8431332    12.762815  0.026857776  0.038099398            1 
   39700    1.1579888   -6.7860681    12.613763  0.026477253  0.038084134            1 
   39800    1.1991048   -6.7189832    12.665584   0.02651923  0.038069036            1 
   39900    1.2110152   -6.7900624    12.768767  0.026668269  0.038056152            2 
   40000    1.1071839    -6.740208    12.903974  0.026883279  0.038046484            1 
   40100    1.1513923   -6.6825483    12.962405  0.026937667  0.038037561            1 
   40200    1.1863798   -6.6882174    12.960817  0.026867366  0.038029462            2 
   40300    1.1788471   -6.6834549    13.075322  0.027037473  0.038024586            1 
   40400    1.2132096   -6.6220065    13.275994  0.027384475  0.038026486       -1e+20 
   40500     1.178435   -6.6872552    13.250769  0.027264956  0.038030283            1 
   40600    1.1456768   -6.7195807    13.326227  0.027352683  0.038030235            3 
   40700    1.2046176   -6.6975704    13.380693  0.027396996  0.038032057            1 
   40800    1.2045963   -6.7102921     13.46724  0.027506618  0.038038361            1 
   40900    1.2634851   -6.7127036    13.511961  0.027530482  0.038045246            2 
   41000    1.1625914   -6.7163769    13.674587  0.027793877  0.038054822            1 
   41100    1.1513171   -6.7574206    13.695547  0.027768748  0.038061123            4 
   41200    1.1454073   -6.8039283    13.565063  0.027437424  0.038062294            4 
   41300    1.1479825   -6.6934966     13.71274  0.027668967  0.038066701            2 
   41400    1.2442472   -6.7491176    13.877499  0.027933773  0.038075415            2 
   41500    1.1193364   -6.6334093    13.941218  0.027994414  0.038089267       -1e+20 
   41600    1.2194258   -6.6672619    13.954419  0.027953564  0.038100255       -1e+20 
   41700    1.2109568   -6.6466354    14.061871   0.02810126  0.038116696       -1e+20 
   41800    1.2073561   -6.6745504    14.105027   0.02812007  0.038131774            1 
   41900    1.1762827   -6.7423033     14.12767  0.028097991  0.038144596            2 
   42000    1.1152774   -6.7648262    14.103381  0.027982898   0.03815124       -1e+20 
   42100    1.1666155   -6.6895587    14.131406  0.027971904  0.038157958            1 
   42200    1.1805797   -6.6835021    14.154093   0.02795042  0.038165181            1 
   42300     1.187829   -6.7169717    14.161149  0.027898244  0.038172738            1 
   42400    1.1407704   -6.7267912    14.221694  0.027951441   0.03817741            1 
   42500    1.1731696   -6.8216629    14.248227  0.027937699  0.038178953       -1e+20 
   42600    1.2051852    -6.753832    14.337146  0.028046059  0.038181442            1 
   42700    1.1319058   -6.7590946    14.294245  0.027896652  0.038182393            1 
   42800    1.1727476   -6.7940452    14.296907  0.027836657  0.038179202            1 
   42900    1.1671865   -6.6908083    14.337909  0.027851416  0.038177507            1 
   43000    1.1482611   -6.7158698    14.407014  0.027920569  0.038175614            1 
   43100    1.1815998   -6.6427371    14.532573  0.028098556  0.038175471            1 
   43200    1.2357007   -6.6693262    14.463028  0.027899359  0.038179051            2 
   43300    1.1554363   -6.6663232    14.426333  0.027764305  0.038178458            1 
   43400    1.1654241   -6.7844685    14.543502  0.027925311  0.038175415            1 
   43500    1.1253574   -6.6906853    14.729617  0.028217656  0.038173515            1 
   43600    1.1615567   -6.6884677    14.746052   0.02818435  0.038173984       -1e+20 
   43700    1.2122813   -6.7306158    14.699718  0.028031499   0.03817448            1 
   43800    1.1356758   -6.6887198    14.688988  0.027947085  0.038173378       -1e+20 
   43900    1.1968533   -6.6699841    14.749418  0.027998136   0.03816966            1 
   44000    1.1317654    -6.630062    14.835187  0.028096945  0.038167574            1 
   44100      1.16128   -6.7680919    14.780251  0.027929424  0.038161705       -1e+20 
   44200    1.1830902   -6.6939815    14.837767  0.027974673  0.038154907            3 
   44300    1.1975295   -6.6947125    14.854505  0.027943012  0.038149167            1 
   44400    1.1992436   -6.7738584    14.809625  0.027795843  0.038140358            3 
   44500    1.1258078   -6.7536825    14.870738  0.027847824  0.038129358            2 
   44600    1.1536964   -6.7388306    14.998262  0.028023658  0.038119367            1 
   44700    1.1743066   -6.7462378    15.009047  0.027981071   0.03811103            1 
   44800    1.1031875   -6.7512139    14.962928  0.027832827  0.038101033            2 
   44900    1.1821227   -6.7814925    14.969113  0.027782318  0.038090444            2 
   45000    1.1647809   -6.7133035    15.010165  0.027796602  0.038077394            1 
   45100    1.1951916   -6.7150098    15.139777  0.027974458  0.038064555            2 
   45200    1.0767331   -6.6510623    15.060443  0.027766303  0.038052105            1 
   45300    1.1850153   -6.6950648    15.056433  0.027697633  0.038040872            1 
   45400    1.1446542   -6.7107571    15.107602  0.027730547  0.038028702       -1e+20 
   45500    1.1527872   -6.6542082    15.305158  0.028031424  0.038013919            1 
   45600     1.169952   -6.7516484     15.31402  0.027986147  0.038002258            1 
   45700    1.1485325   -6.7145986    15.214041  0.027742598    0.0379885            1 
   45800    1.1464313   -6.7354642    15.322247  0.027878906  0.037974432            1 
   45900    1.1821191   -6.6776348    15.399889  0.027959129  0.037962589            1 
   46000    1.1180997   -6.7088657    15.459607  0.028006535  0.037950585            2 
   46100    1.1378251   -6.7440621    15.404758  0.027846634  0.037935247            1 
   46200    1.1811235   -6.6814072    15.513984  0.027983377  0.037921589            2 
   46300    1.1593295   -6.7024655    15.547655   0.02798354  0.037909972            1 
   46400    1.1372671   -6.7360634    15.515524  0.027865524  0.037895268       -1e+20 
   46500    1.1603188   -6.7311772    15.530883  0.027833124  0.037880484            1 
   46600    1.1296673   -6.7650243    15.574408   0.02785123  0.037864769            1 
   46700    1.1553622   -6.6682622    15.630629  0.027891915   0.03784996            4 
   46800    1.1615546   -6.6853493    15.771183   0.02808259  0.037837092            1 
   46900    1.1965889   -6.6552522    15.895264  0.028243183  0.037826235            1 
   47000    1.1604245   -6.6989507    15.848626  0.028100401  0.037815042            2 
   47100    1.1557906   -6.7535138    15.938697  0.028200101  0.037803307            1 
   47200    1.1838973   -6.7475319    15.892008  0.028057924  0.037792044            1 
   47300    1.2066761   -6.7531305    15.910332  0.028030888  0.037780254            1 
   47400    1.1830797   -6.6615545     16.02811  0.028178815  0.037771554            1 
   47500    1.1375424   -6.7340755     16.05055   0.02815886  0.037761121            1 
   47600    1.1279554   -6.7657134    16.124199  0.028228639  0.037748731       -1e+20 
   47700    1.0961148   -6.8538842    16.049851  0.028039571  0.037733511            1 
   47800    1.1816166   -6.8409927    16.114784  0.028094114   0.03771876            1 
   47900    1.1919194    -6.730007    16.094307  0.027999837  0.037704478            1 
   48000    1.2020099   -6.6456086    16.268286  0.028243552  0.037695621            2 
   48100    1.1094814    -6.598371    16.315062  0.028265873  0.037687541            1 
   48200    1.1763391   -6.7806327    16.348474  0.028264996  0.037674206            1 
   48300    1.1618738   -6.7911253    16.348887  0.028207189  0.037661094       -1e+20 
   48400    1.1156419   -6.8221052    16.371449  0.028187756  0.037645376            1 
   48500    1.1203897   -6.7496997       16.422  0.028216495  0.037628744            1 
   48600     1.195824   -6.7535977     16.50412  0.028299246  0.037614891            1 
   48700    1.1461341   -6.6867632    16.461997  0.028169057  0.037602585       -1e+20 
   48800    1.1726489   -6.8057462     16.55333  0.028267298  0.037590801            1 
   48900    1.1284787   -6.8280576    16.617934  0.028319587  0.037578202       -1e+20 
   49000     1.152181   -6.7371188    16.708919  0.028416528  0.037565689            1 
   49100    1.1971615   -6.7035083    16.792881  0.028501155  0.037555148            1 
   49200    1.2127818   -6.7159479    16.816561  0.028483335  0.037546567            1 
   49300    1.1276892    -6.658655     16.82303  0.028436495  0.037535891            1 
   49400    1.1630962   -6.7584637    16.798113  0.028336898  0.037522783            2 
   49500    1.0712456   -6.7281976    16.720096  0.028148309  0.037504783            4 
   49600    1.1355614   -6.7212778    16.863563    0.0283326  0.037489298            3 
   49700    1.1701413    -6.691329    16.895362  0.028328909  0.037475492            1 
   49800    1.1582923   -6.7013965    17.030131  0.028497541  0.037464207            1 
   49900    1.1072042   -6.6089699    17.122553  0.028594778  0.037454479            1 
   50000    1.1481542   -6.7247759     17.02685  0.028378083  0.037445162            1 
   50100     1.148173   -6.7839754    17.042942  0.028348207  0.037434167            3 
   50200    1.1615947   -6.7599386    17.163483  0.028491837  0.037422153            2 
   50300    1.1890618   -6.6980096     17.25089  0.028580002  0.037412862            1 
   50400    1.1465367    -6.701623    17.392815  0.028757961  0.037404402       -1e+20 
   50500    1.1569398   -6.8085015    17.287932  0.028527941  0.037393818            1 
   50600    1.1191657   -6.8113371    17.345974   0.02856715  0.037381096       -1e+20 
   50700    1.1638726   -6.7752479    17.472761  0.028719199  0.037370791       -1e+20 
   50800    1.0917177   -6.7212693    17.467953  0.028654779  0.037361718            3 
   50900    1.1748026   -6.7997538      17.4715   0.02860429  0.037351187            1 
   51000    1.1396131   -6.8243902    17.501563  0.028597325  0.037340163            1 
   51100    1.1278061   -6.8244876    17.445033  0.028449173  0.037326424       -1e+20 
   51200    1.1533716   -6.7333465    17.511215  0.028501325  0.037312774       -1e+20 
   51300    1.2194235   -6.7594501     17.54774    0.0285051  0.037302396            1 
   51400    1.1483733   -6.6749463    17.573772  0.028491849   0.03729178            2 
   51500    1.1617269   -6.7773701    17.522266  0.028353181  0.037278093            1 
   51600    1.1087449   -6.8183472    17.512314  0.028282161  0.037259976            2 
   51700    1.1779759   -6.8149177    17.658663  0.028463351   0.03724179            1 
   51800    1.1410879   -6.7260904    17.649292  0.028393326  0.037225898       -1e+20 
   51900    1.1658981    -6.686495    17.629772  0.028307277  0.037212124            3 
   52000    1.1835535    -6.692597    17.784034  0.028500054  0.037199314       -1e+20 
   52100    1.1197029   -6.7359196    17.785047  0.028446973  0.037184806            1 
   52200    1.1118984   -6.7124084     17.77175  0.028371248  0.037168234            2 
   52300    1.1754903   -6.8233843    17.801712  0.028364742  0.037151269            2 
   52400    1.0886036   -6.6987441    17.882228  0.028438657   0.03713444            1 
   52500     1.133632   -6.7554707     17.97949  0.028538873  0.037119687            1 
   52600    1.1289317    -6.788245    17.896943  0.028353839  0.037103451            1 
   52700    1.1262796   -6.7727194    17.844349   0.02821687  0.037086756            2 
   52800    1.1345858    -6.662597     18.05744  0.028499747  0.037073031            1 
   52900    1.1460077   -6.7363458    18.109033  0.028527147  0.037060499       -1e+20 
   53000     1.109238   -6.7269506    18.126569  0.028500894  0.037046715       -1e+20 
   53100    1.1418712   -6.7072844    18.213982  0.028584403  0.037033254       -1e+20 
   53200    1.0956332   -6.7170071    18.245898  0.028580668  0.037018941       -1e+20 
   53300    1.2184889   -6.7618043    18.262792  0.028553459  0.037004795       -1e+20 
   53400    1.1625403   -6.7062049    18.151527  0.028326352  0.036990954            1 
   53500    1.1287275   -6.6981394    18.219737  0.028379653  0.036976281            1 
   53600    1.1283412   -6.7361362    18.355168  0.028537264  0.036962439            1 
   53700    1.0714251   -6.7808214    18.384918  0.028530289  0.036946538            1 
   53800    1.1409427   -6.8501916    18.383934  0.028475734  0.036928926            2 
   53900    1.2112557   -6.8277498    18.428622  0.028491995  0.036913418       -1e+20 
   54000    1.1523138   -6.6413719     18.49431  0.028540602  0.036899487            1 
   54100    1.1937573   -6.6937272    18.383625  0.028317352  0.036884761            1 
   54200    1.1426755   -6.7601385    18.327704  0.028179127  0.036865488            1 
   54300    1.1488107   -6.7371577    18.415819  0.028262459  0.036844577            2 
   54400    1.1793802   -6.7397544     18.50645  0.028349342  0.036825685            1 
   54500    1.1118346   -6.6773256    18.516907  0.028313313  0.036806455            1 
   54600     1.167341   -6.7366743    18.591639  0.028375517  0.036787029            2 
   54700    1.1665065   -6.8215757    18.463444  0.028128342  0.036766157            1 
   54800    1.2086927   -6.8287531    18.455171  0.028064433  0.036745224            1 
   54900    1.0918644   -6.8088948    18.558564  0.028170255   0.03672404            1 
   55000    1.1709966   -6.8369039    18.675817  0.028296692   0.03670298            2 
   55100    1.0842063   -6.8029713    18.650251  0.028206672  0.036681737            1 
   55200    1.1288401   -6.8266838    18.602266  0.028083131  0.036659787            2 
   55300    1.1941415   -6.8104807    18.689319   0.02816353  0.036640745            1 
   55400    1.1559608   -6.7885224    18.763877  0.028224845  0.036622676            1 
   55500    1.1276132   -6.8035082    18.774374  0.028189751  0.036603036            1 
   55600    1.1037156   -6.9001694    18.700829  0.028028821  0.036579273            2 
   55700    1.1143269   -6.8379061    18.745257  0.028044968  0.036554387            1 
   55800    1.1242469   -6.8590016    18.692393   0.02791576  0.036528773            2 
   55900    1.1385653   -6.8880158    18.648167  0.027799891  0.036502364            2 
   56000    1.1199821   -6.9514861    18.687586  0.027808907     0.036476            3 
   56100    1.1262452   -6.8444521    18.885933   0.02805397  0.036451376       -1e+20 
   56200    1.1792659   -6.8001583    18.941886  0.028087019  0.036428727            3 
   56300     1.100346    -6.786768    18.813917  0.027847715  0.036405275       -1e+20 
   56400    1.1522556   -6.8610702    18.908416  0.027937966  0.036380115            4 
   56500    1.2106883   -6.8062522    19.094289  0.028162668  0.036357087            1 
   56600    1.1281647   -6.7556609     19.26541  0.028364855  0.036338404            2 
   56700       1.1286   -6.8399587    19.128162  0.028113113   0.03631884       -1e+20 
   56800    1.1640555     -6.84158    18.963346   0.02782181  0.036296781       -1e+20 
   56900    1.1871717   -6.7684759    19.103747   0.02797854  0.036275537            1 
   57000    1.1179736    -6.786338     19.27359  0.028177762  0.036253825            1 
   57100    1.1497702   -6.8579876    19.302714  0.028170918  0.036230712            2 
   57200    1.0587184   -6.7967822    19.269625  0.028073463  0.036206624       -1e+20 
   57300    1.1569478   -6.7698245    19.269052  0.028023636  0.036184997       -1e+20 
   57400    1.1701609   -6.8246428    19.154193  0.027808061   0.03616324            1 
   57500     1.106308   -6.8284417    19.321456   0.02800211  0.036140168       -1e+20 
   57600    1.1469506   -6.8264048    19.404901   0.02807422  0.036116651            1 
   57700    1.1346155   -6.8456813    19.423027  0.028051744  0.036094504            1 
   57800    1.1100575   -6.9158162    19.428204  0.028010674  0.036070478            2 
   57900    1.1134176   -6.7948169    19.394498  0.027913786  0.036046962            1 
   58000    1.1475954   -6.7269445    19.482436  0.027992005  0.036025737            1 
   58100    1.1468785   -6.7353495     19.55055  0.028041523  0.036005442            1 
   58200     1.156524   -6.8035198    19.538523  0.027976121  0.035984918            1 
   58300    1.1021276   -6.8305128    19.620764  0.028045689  0.035962549            1 
   58400    1.1010823   -6.7355304    19.649667  0.028038908  0.035939142            1 
   58500    1.1350075   -6.7609909    19.643612  0.027982353  0.035916227            2 
   58600    1.1038972   -6.8073138    19.509164  0.027743407  0.035891368            5 
   58700     1.176967   -6.8672447     19.51343  0.027702201  0.035865215            1 
   58800    1.1453405    -6.747332    19.732805  0.027965993  0.035841006            1 
   58900    1.0896323    -6.766458    19.764842  0.027963839    0.0358172            1 
   59000    1.1476226   -6.7977082    19.728018  0.027864433  0.035792172            1 
   59100    1.1782535   -6.7915942    19.634519  0.027685446  0.035768128            2 
   59200    1.1051373   -6.7998591    19.697764  0.027727708  0.035743735            2 
   59300    1.1167315   -6.7870033    19.904411  0.027971348  0.035718479            1 
   59400    1.1534613   -6.7569992    19.944938  0.027981114  0.035695929            1 
   59500    1.0527461   -6.7289045    19.831414  0.027775089  0.035673075            1 
   59600    1.1626612   -6.8005321    19.907534  0.027834918  0.035650229       -1e+20 
   59700    1.0971667   -6.7662689    19.979036  0.027888101  0.035628433            1 
   59800    1.1745541    -6.770765    20.046991  0.027936163  0.035605933            1 
   59900    1.1373765   -6.8245602    20.173902  0.028066085  0.035584878            1 
   60000    1.0982125    -6.849246    20.215335  0.028076854  0.035562318            1 
   60100    1.1211703   -6.7563853    20.247387  0.028074579  0.035541805            2 
   60200    1.1784337   -6.7711582    20.186533  0.027943705  0.035521356       -1e+20 
   60300    1.0940572   -6.7802881     20.04847  0.027706564  0.035499929            2 
   60400    1.1361711   -6.8393669    20.116765  0.027754918  0.035475749            1 
   60500    1.1426161    -6.814799    20.344986  0.028023396  0.035454519            1 
   60600    1.0955305   -6.8636813    20.238194  0.027830299  0.035431847            1 
   60700    1.1446225   -6.8733383    20.215995  0.027753974  0.035407574            1 
   60800    1.0952327   -6.8466393     20.34155  0.027880414  0.035382927            1 
   60900    1.1467558   -6.8201272    20.452409  0.027986328  0.035358606            1 
   61000    1.1367348   -6.8545887     20.30586  0.027740246  0.035334282            1 
   61100    1.0928002   -6.8100068    20.253844    0.0276239  0.035309077       -1e+20 
   61200    1.1324404   -6.8036694    20.318065   0.02766621  0.035284199            1 
   61300    1.1148355   -6.8328608    20.387795  0.027715871   0.03525999       -1e+20 
   61400    1.1346733   -6.7105111     20.39064  0.027674593  0.035235602       -1e+20 
   61500    1.0958855    -6.778062    20.428598  0.027681027  0.035212959       -1e+20 
   61600    1.0948636   -6.8200862    20.325329  0.027496386  0.035186943       -1e+20 
   61700    1.1424722   -6.7465185    20.442392   0.02760993  0.035161862            1 
   61800    1.1501862   -6.7906512    20.437981  0.027559306  0.035136967            2 
   61900    1.0906991   -6.8662185    20.462365   0.02754761  0.035109007            1 
   62000    1.1461543   -6.8438621    20.428908   0.02745821  0.035080832       -1e+20 
   62100    1.2084235   -6.7961095    20.464326  0.027461521  0.035054582            1 
   62200    1.1550847   -6.7982345    20.474277  0.027430703  0.035028671            1 
   62300    1.0917734   -6.7888921     20.61299  0.027572217  0.035002017            2 
   62400    1.1375922     -6.81984    20.665008    0.0275975  0.034976937       -1e+20 
   62500    1.1018797    -6.771753    20.641987  0.027522649  0.034951324            1 
   62600     1.170384   -6.7604614    20.580419  0.027396724  0.034926383            2 
   62700    1.1202406    -6.782218    20.557529  0.027322606  0.034901153            5 
   62800    1.1333935   -6.8997215    20.554004  0.027274421  0.034873085            3 
   62900    1.1369521   -6.8443848    20.607076  0.027301372  0.034844858       -1e+20 
   63000    1.1198035    -6.822797    20.594562  0.027241484   0.03481633            1 
   63100    1.1306021   -6.9091325    20.585732  0.027186651  0.034786169            1 
   63200    1.1127732   -6.8781393    20.637316  0.027211651  0.034755288       -1e+20 
   63300    1.1162001   -6.8098973    20.722016  0.027280168  0.034724438            1 
   63400    1.0939135   -6.8870307    20.589151  0.027062502  0.034694321            2 
   63500    1.1362322   -6.8494218    20.636025  0.027081398  0.034663869            1 
   63600    1.1456869   -6.7874022    20.642746  0.027047623  0.034635663            1 
   63700    1.1342475   -6.7826008    20.717316  0.027102715  0.034607928            1 
   63800    1.1023306   -6.8362366    20.732751  0.027080396  0.034578321            1 
   63900     1.111601   -6.8935855    20.808964  0.027137407  0.034547964            1 
   64000     1.081667   -6.8672842    20.931635  0.027254733  0.034518388            1 
   64100    1.1208518    -6.802172    20.955126  0.027242753  0.034489829            1 
   64200    1.1315995   -6.7895244    20.861473  0.027078755  0.034461961            2 
   64300    1.1450865   -6.8416937    20.916923  0.027108506  0.034434862            1 
   64400    1.0599053   -6.8563195    21.031698   0.02721493  0.034407409       -1e+20 
   64500    1.1127728   -6.8321321    21.126748   0.02729554  0.034379789            3 
   64600    1.0986456   -6.7983324    21.170025  0.027309114  0.034353292            1 
   64700    1.1904143   -6.7900004    21.208126  0.027315979   0.03432745            1 
   64800    1.1469006   -6.8461793    21.025972  0.027039572  0.034300666            2 
   64900    1.1202827   -6.8775721    21.040484  0.027016544  0.034272567            1 
   65000    1.0940203   -6.8887586     21.13883  0.027101064  0.034244489            1 
   65100    1.1212321   -6.8086119    21.235632  0.027183348  0.034217303            1 
   65200    1.0752684    -6.721541    21.199345  0.027095277  0.034190849            1 
   65300    1.1799711   -6.7891972    21.073691  0.026893429  0.034164732            1 
   65400    1.0906048   -6.7668213    21.337071  0.027187909  0.034138871            1 
   65500    1.1194323   -6.8204801    21.469002  0.027314252  0.034112529            1 
   65600    1.0811856   -6.8463214    21.326013  0.027090972  0.034085405            1 
   65700    1.1289426   -6.8538897    21.395517  0.027137896  0.034058571            2 
   65800    1.1391755   -6.7721996    21.503217   0.02723305  0.034034332            1 
   65900    1.0719338   -6.8041235    21.496864  0.027183692  0.034010247            1 
   66000    1.1042199   -6.8190089    21.550252  0.027209914  0.033985078            1 
   66100    1.1173038    -6.879649    21.573014  0.027197446  0.033958867            1 
   66200    1.0786289   -6.9157994    21.577597  0.027162131  0.033933228            1 
   66300     1.122945   -6.8565704    21.561729  0.027101218  0.033906864       -1e+20 
   66400    1.1073713    -6.790704    21.604927  0.027114617  0.033881877            2 
   66500    1.1039912   -6.8245304    21.584119  0.027047767  0.033857522            2 
   66600    1.1526402   -6.8798309    21.578789  0.027000486  0.033833325            2 
   66700    1.1307981   -6.8205471    21.779312  0.027210534  0.033809736            1 
   66800    1.0645602     -6.81165    21.897826  0.027317647  0.033786312            4 
   66900    1.0720256   -6.8302813    21.916683  0.027300302  0.033761747            1 
   67000    1.1329599   -6.7986155    21.943152  0.027292478   0.03373903            1 
   67100     1.127072   -6.7605672    21.945169  0.027254308  0.033717793            6 
   67200    1.1201934   -6.7533944    22.106681  0.027414039  0.033696689            1 
   67300    1.1479356   -6.8735398    22.052246  0.027305901    0.0336756            2 
   67400    1.0976582   -6.8275612    22.130496  0.027362136  0.033654769       -1e+20 
   67500    1.1537816   -6.8193126    22.354406  0.027598032  0.033635231            1 
   67600    1.1350154   -6.9237437    22.240457  0.027416736  0.033615048            3 
   67700    1.0820299   -6.7649348    22.226942  0.027359603  0.033595947            1 
   67800    1.1682414   -6.8107237    22.423748  0.027561146  0.033579111            5 
   67900    1.0728961   -6.7642565    22.441786  0.027542693  0.033561544            2 
   68000     1.105178   -6.8255133    22.493353  0.027565383   0.03354292            2 
   68100    1.1361553   -6.8296987    22.406936  0.027419158  0.033523986            1 
   68200    1.1346795   -6.8318764    22.385402  0.027352642   0.03350521       -1e+20 
   68300    1.1377899   -6.7291941    22.754447  0.027762868  0.033488674            1 
   68400    1.1017848    -6.774083    22.554866  0.027479125  0.033472125            2 
   68500     1.076964   -6.8580008    22.602667  0.027497162  0.033452821            1 
   68600    1.1030514   -6.8712696      22.4534  0.027275753  0.033432222            1 
   68700    1.1444469   -6.8832906    22.340122  0.027098644    0.0334114            3 
   68800      1.11566   -6.8343346    22.540871  0.027302412  0.033391793            1 
   68900     1.093328   -6.9131547    22.559887  0.027285785   0.03337263            1 
   69000    1.1044726   -6.8482934    22.760238   0.02748821  0.033354083            1 
   69100    1.1038279   -6.8895024    22.795668  0.027491158  0.033335663            1 
   69200     1.059845   -6.8921495    22.727274  0.027369067  0.033316651            1 
   69300    1.0871967   -6.8158432    22.816304  0.027436633  0.033298092            1 
   69400    1.1274753   -6.8636127    22.836454  0.027421294  0.033280492            2 
   69500    1.0914113   -6.8921087    22.793864  0.027330772  0.033261824            1 
   69600    1.0501539   -6.9180762    22.984829  0.027520149  0.033242762            1 
   69700     1.069633   -6.8329833    23.180321  0.027714396  0.033225318            1 
   69800     1.121714   -6.7955412    23.152745  0.027641768  0.033210572       -1e+20 
   69900    1.1094865   -6.8185186    23.213237   0.02767434  0.033196313            1 
   70000    1.1326377   -6.7748483     23.40099  0.027858321  0.033182069            5 
   70100    1.0699836   -6.7583424    23.331098  0.027735495  0.033167755            1 
   70200    1.1090582   -6.8187515    23.205481  0.027546867  0.033152446            1 
   70300    1.1699791   -6.8157749    23.111709  0.027396525  0.033135954            1 
   70400    1.0961842   -6.7426454    23.218828  0.027484409  0.033120454            1 
   70500    1.0574614   -6.8044117    23.291463   0.02753128  0.033103596            1 
   70600    1.0833771   -6.8690114    23.289883  0.027490419  0.033085712       -1e+20 
   70700    1.0964689   -6.8921109    23.356572  0.027530142  0.033067889            3 
   70800    1.1277082   -6.8492032    23.402226  0.027544992  0.033051199            1 
   70900     1.058038   -6.8717468    23.210162  0.027280397  0.033034459            1 
   71000    1.1017421    -6.848774    23.337737   0.02739171  0.033016816            1 
   71100    1.1173238   -6.8525979    23.455234  0.027490898  0.032999715            1 
   71200    1.0810043    -6.853674     23.45638  0.027453628  0.032983038            4 
   71300    1.1411563   -6.8937004    23.433684  0.027388597  0.032965105            2 
   71400     1.101745    -6.877508    23.490782  0.027416879  0.032947096            3 
   71500    1.0794592   -6.9439697    23.303208  0.027159916  0.032926474            4 
   71600    1.1227258   -6.9188515      23.2794  0.027094274  0.032906161            1 
   71700    1.0796268   -6.8355426    23.379139  0.027172406  0.032886606            1 
   71800    1.1186793   -6.8410414    23.453801  0.027221217  0.032867656            1 
   71900    1.0781867   -6.8441379     23.45585  0.027185732  0.032849376            2 
   72000    1.0802313   -6.9080541    23.498858  0.027197752  0.032830836            1 
   72100    1.0706409   -6.8349084    23.614489  0.027293677  0.032812588            2 
   72200    1.0671664   -6.8883135    23.618066  0.027260003  0.032793051            2 
   72300    1.0999934     -6.90844    23.457235  0.027036923  0.032772457            1 
   72400    1.0965387   -6.8262941    23.538958  0.027093644  0.032753254            3 
   72500    1.1224763   -6.7957689    23.638316  0.027170478  0.032735962            1 
   72600    1.0968744   -6.8472316    23.628818  0.027122151  0.032718209            1 
   72700    1.0658847   -6.7993848    23.755519  0.027230077  0.032700256            2 
   72800    1.1090718   -6.7888657    23.773686  0.027213468  0.032683073            2 
   72900    1.0895483   -6.8790908    23.871465  0.027287911  0.032665355            1 
   73000      1.09114   -6.9127752    23.845999  0.027221459  0.032647088            2 
   73100    1.0959279   -6.8773504    23.915834  0.027263833  0.032628781            2 
   73200    1.0912955   -6.8048717    24.088278  0.027422902  0.032612472            2 
   73300    1.1448716   -6.8437865     24.07191  0.027366882  0.032597717            1 
   73400    1.0832407    -6.892294    23.985733  0.027231759  0.032580401            2 
   73500    1.1226665   -6.8806204    23.952217  0.027156708  0.032563367            1 
   73600    1.1010111   -6.8617504    24.161256  0.027356495  0.032547021            2 
   73700    1.0695158   -6.8879675    24.241366  0.027409957  0.032529806            1 
   73800    1.1065649   -6.8792203     24.26798  0.027402868  0.032513783            1 
   73900    1.0871218   -6.9268712    24.225431  0.027317807  0.032497799            2 
   74000    1.1226613   -6.9220156    24.323484  0.027391311  0.032482623            2 
   74100    1.0721548   -6.8179998    24.484778  0.027535738  0.032469223       -1e+20 
   74200    1.0941335   -6.8741416    24.531257  0.027550827  0.032456212            1 
   74300     1.045699   -6.9101472      24.5437  0.027527703  0.032443083            1 
   74400    1.1377249   -6.9363796     24.53154  0.027477083  0.032430076       -1e+20 
   74500    1.1458251    -6.835413    24.751084  0.027685776  0.032418658            1 
   74600    1.1146113   -6.8434598    24.822123   0.02772802  0.032408652            1 
   74700     1.047528   -6.8332957    24.927615  0.027808584  0.032397674            1 
   74800     1.099272   -6.8921012    25.023445  0.027878169  0.032386713            1 
   74900    1.0763352   -6.8085795    24.959474  0.027769776  0.032375515            3 
   75000    1.1036651   -6.8885671    24.862969  0.027625521  0.032365486            1 
   75100    1.0670513   -6.8980061    24.853201  0.027577897  0.032354298            4 
   75200    1.0925314   -6.8800342    25.089331  0.027802893  0.032344154            1 
   75300    1.0998295   -6.8389543    25.233293  0.027925291   0.03233535            2 
   75400    1.1168417   -6.8339434    25.240219  0.027895909  0.032326982       -1e+20 
   75500    1.0645338    -6.847365    25.081464  0.027683735  0.032317433       -1e+20 
   75600    1.1164418   -6.8925435    25.133719  0.027704716  0.032307641            1 
   75700    1.0914992   -6.8278931    25.370265  0.027928517  0.032299231            1 
   75800    1.1045911   -6.7960304    25.460009  0.027990335  0.032292215       -1e+20 
   75900    1.0847857    -6.849935    25.526837   0.02802683  0.032284142            1 
   76000    1.0417638   -6.8819874    25.356404  0.027803075  0.032274511            2 
   76100    1.0896949   -6.8825372    25.138156  0.027527546  0.032263325            1 
   76200    1.0927244   -6.8786387    25.185596  0.027543303  0.032250982            1 
   76300    1.1118237   -6.8261205    25.326238   0.02766081  0.032239816            1 
   76400    1.0970822   -6.8590363    25.284938  0.027579557  0.032228524            1 
   76500    1.0787795   -6.9124312    25.191814  0.027442063  0.032215263            3 
   76600    1.0837168   -7.0023771    25.185763  0.027399655  0.032200974            1 
   76700    1.0703734   -7.0369499    25.336984  0.027528231  0.032185857            1 
   76800      1.07519   -6.9144064    25.364181  0.027521897  0.032171916            2 
   76900    1.1230757    -6.883959    25.349484  0.027470182  0.032159655            1 
   77000    1.1211202   -6.8374029    25.360724  0.027446671  0.032146726            2 
   77100    1.0657368   -6.8502194    25.488424  0.027549096  0.032133934            1 
   77200    1.1142232   -6.9617964    25.384246  0.027400956  0.032120318            3 
   77300    1.1109139   -6.8745825    25.461864  0.027449185  0.032106824            1 
   77400    1.0689892   -6.7801764    25.643309  0.027609075  0.032095025       -1e+20 
   77500    1.0782949   -6.8355646    25.530807  0.027452481  0.032081917            1 
   77600    1.0431625   -6.8643425    25.463819  0.027345167  0.032067065            2 
   77700    1.1135722   -6.8552897    25.337786  0.027174803  0.032052295            2 
   77800    1.0476212   -6.8335462    25.344912  0.027147506  0.032037405            1 
   77900     1.110739    -6.804411    25.438473  0.027212744  0.032022303            1 
   78000     1.094926   -6.8721838    25.464565  0.027205731  0.032007349       -1e+20 
   78100     1.091284   -6.9251213     25.54344  0.027255057  0.031992675            1 
   78200    1.0882096   -6.9284281    25.668737  0.027353726  0.031977948            1 
   78300    1.0936646   -6.9294712      25.8149  0.027474351  0.031963467            1 
   78400    1.1058426    -6.851518    25.817075  0.027441618  0.031949675       -1e+20 
   78500    1.1190665   -6.8699683    25.625849  0.027203661   0.03193512            5 
   78600    1.0660645   -6.8506618    25.612997  0.027155425  0.031919561            2 
   78700    1.0863899   -6.8106616     25.68828  0.027200635  0.031904289            1 
   78800     1.177993    -6.869718     25.87695  0.027365641  0.031890894       -1e+20 
   78900    1.0471792   -6.8151359    25.948909  0.027406959  0.031877772            4 
   79000    1.0573363   -6.8993889    25.817052  0.027233177   0.03186379            1 
   79100     1.077101   -6.9293368     25.96865  0.027358459  0.031849599            1 
   79200    1.1058844   -6.8745137    25.990928  0.027347357  0.031836873            1 
   79300    1.0614641   -6.8527455    25.887218  0.027203886   0.03182391            2 
   79400    1.0279816   -6.9058647     25.81086  0.027089484   0.03180965            1 
   79500    1.0964676    -6.897333    25.922557  0.027172491  0.031795145            1 
   79600    1.0747044   -6.9006181     25.95176  0.027168927  0.031780688            3 
   79700    1.0821655   -7.0124893    25.920107  0.027101743  0.031764923            2 
   79800    1.0753318    -6.952476    25.998565  0.027149712  0.031748445            1 
   79900    1.0600962   -6.8388104    26.042856  0.027161927  0.031733283            1 
   80000     1.164148   -6.8931177    25.954011  0.027035428  0.031718605            2 
   80100    1.1076832    -6.797298    26.107745  0.027161616  0.031704462            1 
   80200     1.033246   -6.8131364    25.960255  0.026974496  0.031689358            2 
   80300    1.1037386   -6.8870365    25.993993  0.026975916   0.03167407            1 
   80400    1.0706791   -6.8513807    26.010586  0.026959562  0.031658476            3 
   80500    1.0651081   -6.8523321    26.183587  0.027105162  0.031642569            1 
   80600    1.1179663   -6.9166988    26.239697  0.027129546   0.03162699       -1e+20 
   80700    1.0780481   -6.9037857    26.143214  0.026996297  0.031611329            2 
   80800    1.0463724    -6.971155    26.074691  0.026892214  0.031594591            2 
   80900    1.1276734   -6.9224062    26.153985  0.026940652  0.031577663            4 
   81000    1.1228401   -6.8828301    26.002178  0.026751212  0.031562232       -1e+20 
   81100    1.1048396   -6.9326501    26.142214  0.026862119  0.031546572            1 
   81200    1.0906127   -6.9043074    26.118537  0.026804738  0.031530811            1 
   81300    1.0552228   -6.9684933    26.216385  0.026872064  0.031514412       -1e+20 
   81400    1.1073825   -6.9569512    26.390412  0.027017211  0.031497984            1 
   81500     1.014885    -6.889753    26.519959  0.027116522  0.031482558            1 
   81600    1.0975911   -6.9487515    26.375503  0.026935767  0.031466755            1 
   81700    1.1030295   -6.9103828     26.34262  0.026869257  0.031451616            1 
   81800    1.0624408   -6.9600659    26.459718  0.026955703  0.031436533            1 
   81900     1.012986   -6.9413059    26.594382  0.027059811  0.031420894            3 
   82000    1.0885737   -6.9696908    26.629767  0.027062771  0.031405684            2 
   82100    1.0467493   -6.9269746    26.422647  0.026819576  0.031390038            1 
   82200    1.0446835   -6.9667115    26.278586  0.026640902  0.031372639            1 
   82300     1.093932   -6.9302306    26.342251  0.026672996  0.031355486       -1e+20 
   82400    1.0930744   -6.9057998    26.544474   0.02684514   0.03133968            1 
   82500    1.0853055   -6.8876636    26.584899  0.026853433  0.031324391            1 
   82600    1.0648023   -6.9137897    26.690006  0.026926963  0.031309167            2 
   82700    1.0748542   -6.9903153    26.805196  0.027010475  0.031294025            2 
   82800    1.0662337   -6.9673003    26.643392  0.026815008  0.031278016            2 
   82900    1.1088201   -7.0096364    26.647167  0.026786456  0.031261724            8 
   83000    1.0867864   -6.8933873      26.7419  0.026849297  0.031246193            2 
   83100    1.0748957   -6.9552628    26.581215  0.026655852  0.031230147            2 
   83200    1.0746091    -6.982084    26.657767  0.026700488  0.031213887       -1e+20 
   83300    1.1055002   -6.8783192    26.848055  0.026858798  0.031198197            1 
   83400    1.0666687   -6.8975968    26.749616  0.026728233   0.03118377            1 
   83500    1.0791724   -6.9688443    26.680689  0.026627434  0.031167945            1 
   83600    1.0422603   -6.9599098    26.701899  0.026616725  0.031151463            1 
   83700    1.0617746    -6.878815    26.988205  0.026869977  0.031135656            1 
   83800     1.062425   -6.8751891    26.991711  0.026841399   0.03112091       -1e+20 
   83900    1.0673642   -6.9734987    26.712374  0.026531956  0.031104666            1 
   84000    1.0462894    -6.915824    26.768413  0.026555965  0.031087994            2 
   84100    1.0981633   -6.9363969    26.748833  0.026504987  0.031071231       -1e+20 
   84200    1.0481902   -6.8925078    26.865386  0.026588861  0.031054688       -1e+20 
   84300    1.0771469   -6.9102689    27.095973  0.026785263  0.031038409            1 
   84400     1.126386   -6.8382576    27.066455  0.026724383  0.031022856            2 
   84500    1.0826471   -6.8779219     26.92141  0.026549714  0.031007061            1 
   84600    1.0861604    -6.915545    26.888651  0.026486063   0.03099068            1 
   84700    1.0906566   -6.9825698     26.86137  0.026427951  0.030974103            1 
   84800    1.0696624   -6.8916957    27.102248  0.026633498   0.03095763            2 
   84900    1.0926285   -6.8513456    27.379847  0.026874604  0.030943339            1 
   85000    1.0630447   -6.8978131    27.307476  0.026772035  0.030929331            1 
   85100    1.0406524   -6.9820976    27.119794   0.02655679  0.030912187            2 
   85200    1.0669485   -6.8971452    27.021154  0.026429141  0.030894916            4 
   85300    1.0870874   -6.9279295    27.124076  0.026498706  0.030878408            3 
   85400    1.0494622    -6.892457    27.229765  0.026570809  0.030862064       -1e+20 
   85500    1.0944614   -6.8549971    27.348097  0.026655065  0.030846712            3 
   85600    1.0546888   -6.9076906    27.419829  0.026693759  0.030832346            1 
   85700    1.0565349   -6.9615471    27.335485  0.026580596  0.030816833            2 
   85800    1.0858479   -6.9448204    27.253283  0.026469777  0.030800759            4 
   85900    1.1396711   -6.9192894    27.321337  0.026504983   0.03078555            3 
   86000    1.0702859   -6.9189926    27.395532  0.026546058  0.030770969            2 
   86100    1.0210977   -6.9444931    27.425907  0.026544625  0.030755775            1 
   86200    1.0132855   -6.8946451     27.67195  0.026751692  0.030740252            3 
   86300    1.0865747   -6.9026626    27.533085  0.026586602  0.030725339            1 
   86400    1.0641397   -6.9287799    27.381512  0.026409637  0.030709635            1 
   86500    1.0906205   -7.0124108    27.323227  0.026322955  0.030693179            1 
   86600    1.0567511   -7.0112409    27.421147  0.026386785  0.030675834            1 
   86700    1.0453148   -6.9548226    27.542984  0.026473457  0.030659048            2 
   86800    1.0914056   -6.9475559    27.633852  0.026530196  0.030643148            2 
   86900    1.0832778   -6.8726541     27.67152  0.026535788  0.030627931            3 
   87000    1.0623787   -6.9387601    27.626417  0.026462085  0.030612528            3 
   87100    1.0238072   -6.9390467    27.604289  0.026410533  0.030596188       -1e+20 
   87200    1.0792772   -6.8806782    27.586111  0.026362874  0.030580101       -1e+20 
   87300    1.1044094   -6.9811068    27.582933  0.026329642  0.030564591            1 
   87400    1.0246207   -6.9499635    27.650411  0.026363854  0.030548119            2 
   87500    1.0452169   -6.9020189    27.729806  0.026409339  0.030531824            2 
   87600     1.086121   -6.9615345    27.792527  0.026438857  0.030516294            4 
   87700    1.0908627   -7.0113026    27.767123  0.026384572  0.030500669            2 
   87800    1.0713898   -6.8958224    27.802046  0.026387667  0.030485284            2 
   87900    1.0987585   -6.9092126     27.82886  0.026383068    0.0304705            1 
   88000    1.0291776   -6.9084395    27.860487  0.026383037  0.030455323       -1e+20 
   88100    1.0042627    -6.944851    27.974616  0.026461044  0.030440252            2 
   88200    1.0491951   -6.9428201     28.05287  0.026504979  0.030425249            1 
   88300    1.0942732   -6.8886718    27.964393  0.026391462  0.030411706       -1e+20 
   88400    1.0645607   -6.9363258    27.865775  0.026268641  0.030397339       -1e+20 
   88500    1.0286466   -6.9390961    27.977773  0.026344419  0.030382469            5 
   88600    1.0806499   -6.9556104     28.23308  0.026554816  0.030368098            1 
   88700    1.0179844    -6.965262    28.189373  0.026483815  0.030354007            1 
   88800    1.0248362   -6.9048201    28.331369  0.026587246  0.030339648            1 
   88900    1.0706709   -6.8865682     28.24989  0.026480962   0.03032623            1 
   89000    1.0320504   -6.8877451    28.281495  0.026480801  0.030312817            2 
   89100    1.0850923   -6.8766149    28.378593  0.026541894  0.030299373            1 
   89200    1.0532919   -6.9298181    28.308808  0.026446943  0.030286576            4 
   89300    1.0506867   -6.9480596    28.379431  0.026483231  0.030273215            2 
   89400    1.0266474    -6.972404    28.618908  0.026676835  0.030259782            2 
   89500    1.0538193   -6.8763348    28.618219  0.026646387   0.03024686            2 
   89600     1.084943   -6.9230299    28.605986  0.026605269  0.030234665            1 
   89700    1.0586031   -6.9896332    28.489549  0.026467437  0.030222058            1 
   89800    1.0333963   -6.9922579    28.466221  0.026416315   0.03020842            4 
   89900    1.0769625   -6.9344981    28.541101  0.026456341  0.030194733            1 
   90000    1.0793489   -6.9478876    28.585057  0.026467645  0.030182197            1 
   90100   0.97229799   -6.9205871    28.610732  0.026462016  0.030168631            2 
   90200    1.0642848   -6.9819492     28.69206  0.026507816  0.030155653            2 
   90300    1.0565457   -6.9089678    28.792483  0.026571136  0.030143229            2 
   90400    1.0428089    -6.882553    29.031607  0.026762175  0.030132024            2 
   90500    1.0357463   -6.9815977    28.818961  0.026536796  0.030120095            1 
   90600      1.04663   -6.9819054    28.973403  0.026649562   0.03010767       -1e+20 
   90700    1.0684787   -6.9996627    28.930114  0.026580406  0.030094952            2 
   90800    1.0790957   -6.9546414    28.692148  0.026332735  0.030082247            1 
   90900    1.0560347   -7.0522131     28.67499  0.026288036  0.030069705            3 
   91000    1.0382926   -7.0673532    28.780793  0.026356038  0.030055869            4 
   91100    1.0389722   -6.9955191    28.961356  0.026492276  0.030043091            1 
   91200    1.0255544   -7.0104138     29.02665  0.026522889  0.030030673            2 
   91300     1.038282   -7.0876398    29.010796  0.026479368  0.030018193            2 
   91400    1.0349265   -6.9927844     29.23095  0.026651121  0.030005703            1 
   91500    1.0597731   -6.9823258    29.078589  0.026483233  0.029993767            1 
   91600    1.1072232   -6.9876933    29.220482  0.026583408  0.029982469            1 
   91700    1.0271143   -6.9351433    29.260027  0.026590355  0.029971137            1 
   91800    1.0557362   -7.0216525    29.278759  0.026578394  0.029960074            2 
   91900    1.0308375   -6.9644153    29.418312  0.026676018  0.029948863            1 
   92000    1.0346626    -6.955192    29.451035  0.026676662  0.029938236            1 
   92100    1.0427564   -7.0617125    29.386664  0.026589454  0.029926637            1 
   92200    0.9531409   -7.0658789    29.383879  0.026558097  0.029914772            1 
   92300     1.019809   -7.0347668    29.614775  0.026737789  0.029903188            3 
   92400     1.072187   -6.9682907     29.57867   0.02667629  0.029892877       -1e+20 
   92500    1.0665336   -6.8795335     29.64186  0.026704378  0.029882984            1 
   92600    1.0757173   -6.8004376    29.852344   0.02686496  0.029873945            2 
   92700     1.079675    -6.913748     29.49594  0.026515587  0.029864111            5 
   92800    1.0583687   -6.9752014    29.461695  0.026456263  0.029853409            2 
   92900    1.0087207   -7.0209589     29.56557  0.026520963   0.02984237            1 
   93000    1.0267453   -7.0256215     29.72166  0.026632312  0.029830966            1 
   93100    1.0527219   -6.9714818    29.823115  0.026694517  0.029820847            1 
   93200    1.0024787   -7.0211219    29.813607  0.026657374  0.029810699            1 
   93300    1.0803995   -7.0266304    29.702005  0.026529122  0.029799721            1 
   93400    1.0744753   -6.9637662    29.798131  0.026586484  0.029789466            1 
   93500    1.0215792   -6.9799875    29.884968  0.026635444  0.029780088            1 
   93600     1.001578   -7.0177489    29.789478  0.026521971   0.02976937            1 
   93700    1.1052891   -7.0467976    29.994425  0.026675938  0.029759342            1 
   93800    1.0068444   -6.9767543    30.163557  0.026797758  0.029750251            1 
   93900    1.0334528   -6.9266468     30.15378  0.026760543  0.029741387            1 
   94000    1.0308032   -7.0157334    29.968109  0.026567472  0.029731923            2 
   94100    1.0537501   -7.0607884    30.035224  0.026598675  0.029721923            1 
   94200    1.0851515   -7.1003147    29.941326  0.026487372   0.02971124            4 
   94300    1.0195836   -7.0690674    30.073146  0.026575774  0.029700512            1 
   94400     1.021383   -7.0311606    30.218742  0.026676149  0.029690227            2 
   94500    1.0410342   -6.9955535    30.261233  0.026685391  0.029680779            1 
   94600    1.0809238   -6.9698419    30.215681  0.026617055  0.029671561            7 
   94700    1.0903546   -7.0537966    30.231895  0.026603216  0.029662572            3 
   94800   0.99713677   -6.9937659    30.292651  0.026628561  0.029653319            1 
   94900     1.011558   -6.9272521    30.428655  0.026719929  0.029644502            1 
   95000    1.0444552   -6.9821723    30.439403  0.026701231  0.029635386            1 
   95100   0.95789421   -6.9390624    30.200378  0.026463703  0.029625907            1 
   95200    1.0678202    -6.997223     30.25087  0.026480103  0.029615672            1 
   95300    1.0459627   -6.9934553    30.217636  0.026423256  0.029605596            1 
   95400     1.013608   -7.0357598    30.309449  0.026475759  0.029595022       -1e+20 
   95500    1.0210588   -6.9838032    30.408804  0.026534732   0.02958424            1 
   95600    1.0813424   -6.9733123    30.464671  0.026555676  0.029574414            2 
   95700    1.0316814    -6.991253     30.34374  0.026422623  0.029564155            1 
   95800    1.0693114   -6.9762409    30.363354  0.026412103  0.029553935            1 
   95900    1.0047761   -6.8836184    30.474789  0.026481394  0.029544362            1 
   96000     1.083067   -6.9887148    30.630637  0.026589095  0.029534977            2 
   96100    1.0035555   -6.9803258    30.628906  0.026559925   0.02952489            2 
   96200    1.0236984   -6.9992454    30.544242  0.026458976  0.029514004            1 
   96300    1.0832138   -6.9515325     30.64474  0.026518467  0.029503766            1 
   96400    1.0221974   -6.9505491    30.583247    0.0264378  0.029493678            4 
   96500    1.0371991   -6.9095161    30.489715  0.026329633  0.029483367            2 
   96600    1.0113064   -6.9296183     30.50294  0.026313786  0.029472986            1 
   96700     1.008007   -6.9152429    30.431181  0.026224734  0.029462029            2 
   96800     1.101628   -6.9580088    30.543331   0.02629419  0.029451807            1 
   96900    1.0037049   -6.9380658    30.709052  0.026409573  0.029442295            3 
   97000    1.0283188   -6.9883792    30.771906  0.026436345  0.029432849            2 
   97100    1.0483193   -6.9622612    30.871814  0.026494863  0.029423367            1 
   97200    1.0580995   -6.9733002    30.871661  0.026467473  0.029413958            1 
   97300    1.0239611    -6.981301    30.790564  0.026370816  0.029403924            1 
   97400    1.0223167   -7.0066874    30.727563  0.026289838  0.029393311            1 
   97500    1.0262262   -7.0812108    30.593192  0.026148027  0.029382156       -1e+20 
   97600    1.0560515   -7.1181822    30.575932  0.026106499  0.029370409            1 
   97700   0.99897248   -7.0170115    30.973442  0.026418834  0.029359379       -1e+20 
   97800    1.0139488   -7.0030689    30.970596  0.026389397  0.029348588            3 
   97900    1.0067949   -7.0150561     30.97679  0.026367714  0.029337762            1 
   98000    1.0341017   -7.0437345    30.788694  0.026180862  0.029326868            1 
   98100    1.0489799   -6.9887669    30.867967  0.026221515  0.029316476            2 
   98200    1.0132301   -6.9690528    30.954575  0.026268308  0.029305897            2 
   98300   0.98431031   -7.0503434    31.086067  0.026353058  0.029295054            1 
   98400    1.0294523   -6.9909985    31.187836  0.026412462  0.029284453            2 
   98500    1.0041248   -7.0329831    31.030705  0.026252712  0.029273275       -1e+20 
   98600    1.0365023   -7.0112176    31.037861  0.026232134  0.029262219            2 
   98700    1.0338311   -6.9441167    31.190259  0.026334227  0.029252085            1 
   98800    1.0412091   -6.9664315    31.083593  0.026217605  0.029242109            2 
   98900    1.0371503   -7.0039728    31.116805   0.02621908  0.029231387            2 
   99000    1.0843515   -6.9758741    31.220979  0.026280286  0.029221151       -1e+20 
   99100    1.0203953   -6.9596998    31.145407  0.026190218  0.029210703            2 
   99200    1.0691326   -7.0055464    31.349503  0.026335268  0.029200701            1 
   99300    1.0310081       -6.997    31.549448  0.026476542  0.029191107            3 
   99400    1.0427455   -7.0192731     31.55585  0.026455273  0.029181311            1 
   99500    1.0269538   -6.9041801    31.673936  0.026527584  0.029172299            1 
   99600     1.051773   -6.9492546     31.49524  0.026351439  0.029163621       -1e+20 
   99700    1.0178003   -6.9139222    31.494113  0.026324066  0.029154608            1 
   99800    1.0470431   -6.9526855     31.60279  0.026388435  0.029145767            1 
   99900    1.0274038   -7.0126309    31.434723  0.026221824  0.029136343            1 
  100000    1.0552862    -7.087515    31.472538  0.026227115  0.029126138            1 
  100100      1.02115   -6.9297658    31.676085  0.026370367  0.029116359            1 
  100200    1.0243245   -6.9487797    31.657102  0.026328262  0.029107052            1 
  100300    1.0217984    -7.028127    31.493021  0.026165687  0.029096863            1 
  100400    1.0396844    -7.026809    31.644074  0.026265002  0.029086341            3 
  100500    1.0182688   -7.0293286    31.827522   0.02639098   0.02907636       -1e+20 
  100600    1.0450279   -7.0862813    31.596963   0.02617376  0.029065817       -1e+20 
  100700    1.0256926   -7.0410224    31.593134  0.026144599  0.029055297            2 
  100800    1.0533744   -6.9564892    31.682225  0.026192315    0.0290448            1 
  100900     1.028752   -7.0061758    31.751943  0.026223937  0.029034846            2 
  101000    1.0537884   -7.0355355    31.752198  0.026198183  0.029024949            1 
  101100   0.98653871   -7.0174737    31.711449  0.026138682  0.029014755            1 
  101200    1.0354847   -7.0291114     31.74498  0.026140465   0.02900455            1 
  101300    1.0953304   -7.0811199    31.653219  0.026039173   0.02899441            1 
  101400   0.99633203    -6.994435    31.831504  0.026160013  0.028984766            2 
  101500    1.0071013   -7.0583204    31.828422  0.026131709  0.028974064            1 
  101600    1.0104639   -7.0825134    31.730818  0.026025934  0.028962722       -1e+20 
  101700    1.0578164   -7.0278022    31.781167  0.026041599  0.028951924            1 
  101800      1.00304   -6.9814396    31.775513  0.026011389  0.028941348            2 
  101900   0.99302464    -7.049323    31.803524   0.02600877  0.028930375       -1e+20 
  102000    1.0332495   -7.0234049    31.841747  0.026014499  0.028919324       -1e+20 
  102100    1.0320362   -6.9524068    32.049511  0.026158595  0.028909707            2 
  102200   0.98077282   -6.9660539    32.041276  0.026126285  0.028899745            4 
  102300    1.0610961   -7.0023525    32.113107   0.02615926  0.028889386            3 
  102400    1.0536976   -6.9939305     32.22755  0.026226847  0.028880111            1 
  102500   0.98897334   -6.9856347    32.102368  0.026099486  0.028870334            1 
  102600    1.0361163   -6.9579167     32.24293  0.026188215  0.028860418            1 
  102700    1.0304072   -7.0312503    32.361218  0.026258696  0.028850364            1 
  102800     1.019397   -7.0365814    32.157629  0.026068117  0.028839604            1 
  102900   0.98784938   -7.0737827    31.798738  0.025752136   0.02882727            2 
  103000    1.0693431    -7.089305    31.705209  0.025651464   0.02881455       -1e+20 
  103100    1.0524415   -7.0933971    31.682513  0.025608239  0.028801555            1 
  103200   0.95653334   -7.0608157    31.740188  0.025629997  0.028788455            1 
  103300    1.0423788   -7.0716367    31.722341  0.025590788  0.028774798            3 
  103400    1.0618213   -6.9962547    31.888992  0.025700348  0.028762022            1 
  103500    1.0451568   -6.9786366    31.931166  0.025709473  0.028750149       -1e+20 
  103600    1.0245208   -7.0279944    31.922753   0.02567789  0.028737821            2 
  103700   0.99221718   -6.9946926    32.083406  0.025782229  0.028725817       -1e+20 
  103800    1.0614415   -7.0062998    32.158009  0.025817284  0.028714026            1 
  103900   0.99773715   -7.0493136    32.058209  0.025712391  0.028701939            2 
  104000    1.0173684    -7.037783    32.076402  0.025702245  0.028689367            1 
  104100    1.0296734   -7.0101919    32.198599  0.025775375  0.028677426            2 
  104200   0.99101126   -7.0785061     32.16689   0.02572528  0.028665354            1 
  104300     1.049002   -7.0965146    32.094607  0.025642862  0.028652883            2 
  104400    1.0524169    -7.061316    32.328541   0.02580503  0.028641019            1 
  104500   0.99889465   -7.0865877    32.251011   0.02571851  0.028628593            1 
  104600   0.94427267   -7.0974123      32.1197  0.025589308  0.028615163            1 
  104700    1.0094803   -7.0562025    32.070561  0.025525756  0.028601824            2 
  104800     1.052686   -7.0105823    32.062664  0.025495121  0.028588994            1 
  104900     1.047629   -7.0830602    32.107867  0.025506726  0.028576204            4 
  105000   0.98626888   -7.0114843    32.286528  0.025624228  0.028563779            2 
  105100   0.99945431    -6.992612    32.354808  0.025653986   0.02855155            1 
  105200   0.99450363   -7.0224082    32.262962  0.025556845  0.028539216            2 
  105300    1.0558755   -7.0205471    32.149493  0.025442777  0.028526364            1 
  105400    1.0165179   -6.9496479    32.216828  0.025471875  0.028514023            1 
  105500    1.0100477   -6.9854109    32.329522  0.025536747  0.028501684            2 
  105600   0.99191906   -6.9527382     32.44199  0.025601318  0.028489145            1 
  105700    1.0133312   -6.9974806    32.468251  0.025597801  0.028476763            1 
  105800    1.0258419   -7.0011227     32.48126  0.025583853  0.028465086            1 
  105900    1.0344408   -6.9962264    32.543556  0.025608715  0.028453151            1 
  106000    1.0387842   -7.0115519     32.70468  0.025711226   0.02844156            2 
  106100   0.98848511   -6.9910127    32.695465  0.025679756  0.028429972            1 
  106200   0.99447696   -6.9668586    32.792185  0.025731469  0.028418427            1 
  106300   0.97410063   -7.0336022    32.600545  0.025557028  0.028406925            2 
  106400   0.99982815   -7.0190136     32.64496  0.025567794  0.028395099            1 
  106500    1.0384155   -6.9891731    32.823767  0.025683698   0.02838428            1 
  106600    1.0353708   -7.0148903    32.765576  0.025614115   0.02837344            1 
  106700    1.0362736   -7.0388195    32.781671   0.02560268  0.028362667            1 
  106800   0.99477854   -7.0817868    32.847086  0.025629749  0.028350939            3 
  106900   0.98305812   -7.0962947    32.839062  0.025599518  0.028338742            1 
  107000   0.98586567   -7.0464665     32.83187  0.025569992  0.028326842            1 
  107100    1.0447091   -7.0501991    32.900374   0.02559942  0.028315688            1 
  107200   0.99458735   -7.0490952    32.994588  0.025648778  0.028304483            1 
  107300    1.0113009    -7.071487    33.021066  0.025645438  0.028293072            2 
  107400    0.9589438   -6.9910326    33.081784  0.025668672  0.028282175            1 
  107500    1.0287739   -6.9971598    33.002253  0.025583142   0.02827177            1 
  107600   0.97770481    -6.911087    32.925023  0.025499553  0.028261153            1 
  107700    1.0610108   -6.9763191    33.077395  0.025593775  0.028250884            1 
  107800    1.0060739   -7.0108046    33.151518  0.025627333  0.028240097       -1e+20 
  107900    1.0102699   -7.0481297     33.20134   0.02564206  0.028229189            2 
  108000   0.97047284   -7.0103392    33.175667  0.025598508  0.028218505            1 
  108100    1.0117019   -7.0061334    33.350072  0.025709275  0.028207871            1 
  108200    1.0611123   -6.9874877    33.344983  0.025681595  0.028197508            1 
  108300    0.9713114   -6.9701875    33.247551  0.025582911  0.028186708            1 
  108400    1.0251866   -6.9814312    33.151837  0.025485729  0.028175624            4 
  108500   0.99702633   -7.0465843    33.111168  0.025431005  0.028164694       -1e+20 
  108600    1.0387782   -7.0304567    33.312691  0.025562225  0.028154332            4 
  108700    1.0157999    -7.045023    33.353099  0.025569687  0.028144191            1 
  108800    1.0083394   -7.0759282    33.400344  0.025582371  0.028133742            1 
  108900    1.0206529   -7.0271673    33.398702  0.025557623  0.028123296            4 
  109000    0.9701678   -7.0978978    33.412337    0.0255446  0.028112964            1 
  109100   0.96668088   -7.0648664    33.604243  0.025667769  0.028102057            1 
  109200     1.021393   -7.0054921    33.730516  0.025740625  0.028092047            1 
  109300    1.0151837   -7.0527322    33.755494  0.025736119  0.028082658       -1e+20 
  109400   0.98070386   -7.0652018     33.73139  0.025694233  0.028072712            1 
  109500    1.0142257     -7.00128    33.844825  0.025757097  0.028063218            1 
  109600    1.0364194   -7.0694666    33.849697    0.0257373  0.028054207            2 
  109700    1.0339346   -7.0704438    33.675076  0.025581188  0.028044964            2 
  109800   0.98286936   -7.0194143    33.845357  0.025687126  0.028035881            1 
  109900    1.0098984   -7.0310568    34.058263  0.025825192  0.028027337            2 
  110000   0.99941563   -7.0574536    34.153807  0.025874096  0.028019188            1 
  110100   0.95130189   -7.0583108    34.129537  0.025832226  0.028010855            1 
  110200    1.0099442   -7.0214452    34.206211  0.025866766  0.028002826            1 
  110300    1.0271181   -7.0053342    34.078894  0.025747124  0.027995091            2 
  110400    1.0145966   -7.0675753    34.160315  0.025785262  0.027987259            2 
  110500    1.0305939   -7.1330331    34.403034  0.025944972  0.027979545            6 
  110600   0.93649795   -7.0875288     34.64908  0.026106902  0.027971819            1 
  110700    1.0168306   -7.0680023    34.470698  0.025949035  0.027964167            1 
  110800    1.0148961    -7.093745    34.345745  0.025831637  0.027956591            1 
  110900    1.0078489   -7.0606401    34.283486  0.025761561  0.027948726            1 
  111000    1.0006122   -7.0899603     34.30526    0.0257547  0.027940032            2 
  111100   0.98534401   -7.0938981    34.271543  0.025706228  0.027931235            2 
  111200   0.99821908   -7.0438496    34.447619  0.025815062  0.027922962            1 
  111300    1.0265841   -7.0593106    34.407669  0.025761957  0.027915171       -1e+20 
  111400    1.0382199   -7.1386891    34.472667  0.025787453    0.0279073            4 
  111500    1.0013319   -7.0843435    34.762775  0.025981147  0.027899833            2 
  111600    1.0256498   -7.1008858    34.721641  0.025927151  0.027892276            1 
  111700   0.97590824   -7.0834758    34.651296  0.025851459  0.027884509            1 
  111800    1.0421777   -7.0999846    34.676815  0.025847357  0.027876807       -1e+20 
  111900   0.96835314   -7.0255526    34.763426  0.025888759  0.027869264       -1e+20 
  112000   0.97508091   -7.0381369     34.86306  0.025939777  0.027861607            1 
Loop time of 100.674 on 24 procs for 100000 steps with 864 atoms

Performance: 171642.648 tau/day, 993.302 timesteps/s
99.4% CPU use with 24 MPI tasks x no OpenMP threads

MPI task timing breakdown:
Section |  min time  |  avg time  |  max time  |%varavg| %total
---------------------------------------------------------------
Pair    | 5.5269     | 5.8941     | 6.2255     |   8.1 |  5.85
Neigh   | 0.69071    | 0.7206     | 0.74208    |   1.5 |  0.72
Comm    | 9.9396     | 11.291     | 12.658     |  24.8 | 11.22
Output  | 1.3411     | 1.3421     | 1.3521     |   0.2 |  1.33
Modify  | 77.968     | 79.802     | 81.916     |  14.7 | 79.27
Other   |            | 1.624      |            |       |  1.61

Nlocal:        36.0000 ave          43 max          31 min
Histogram: 3 1 1 7 1 7 2 1 0 1
Nghost:        1426.75 ave        1440 max        1413 min
Histogram: 1 2 2 2 5 4 2 4 0 2
Neighs:        4747.38 ave        5562 max        3998 min
Histogram: 1 2 4 1 6 0 6 2 1 1
FullNghs:      9495.79 ave       11346 max        8182 min
Histogram: 2 2 1 7 5 2 3 1 0 1

Total # of neighbors = 227899
Ave neighs/atom = 263.77199
Neighbor list builds = 5835
Dangerous builds = 0

#clear
#
#next RN
#
#jump SELF
Total wall time: 0:01:42
