
units lj                  # Use reduced LJ style units
atom_style atomic         # Uncharged point particles
atom_modify map hash      # Needed for indexing of clusters etc
                          # Used to be able to find where atoms are in relation to each other.

lattice fcc 1.0 spacing 1 1 1
Lattice spacing in x,y,z = 1.5874011 1.5874011 1.5874011
region box block 0 6 0 6 0 6 units lattice
create_box 2 box
Created orthogonal box = (0.0000000 0.0000000 0.0000000) to (9.5244063 9.5244063 9.5244063)
  2 by 2 by 3 MPI processor grid
create_atoms 1 box
Created 864 atoms
  using lattice units in orthogonal box = (0.0000000 0.0000000 0.0000000) to (9.5244063 9.5244063 9.5244063)
  create_atoms CPU = 0.001 seconds
set type 1 type/fraction 2 0.2 78393
Setting atom values ...
  181 settings made for type/fraction
mass 1 1.0
mass 2 1.0
pair_style lj/cut  3.5
pair_modify tail  yes
pair_coeff 1  1  1.0  1.0   # Intearaction between 1 and 1 set with epsilon = 1 and sigma = 1
pair_coeff 1  2  1.5  0.8
pair_coeff 2  2  0.5  0.88

write_data data.0
System init for write_data ...
Neighbor list info ...
  update every 1 steps, delay 10 steps, check yes
  max neighbors/atom: 2000, page size: 100000
  master list distance cutoff = 3.8
  ghost atom cutoff = 3.8
  binsize = 1.9, bins = 6 6 6
  1 neighbor lists, perpetual/occasional/extra = 1 0 0
  (1) pair lj/cut, perpetual
      attributes: half, newton on
      pair build: half/bin/atomonly/newton
      stencil: half/bin/3d
      bin: standard
WARNING: Not all mixed pair coeffs generated from mixing. Use write_data with 'pair ij' option to store all pair coeffs. (../write_data.cpp:312)


#############################
#   M E L T   S Y S T E M   #
#############################

velocity all create 2.4 4344764 mom yes dist gaussian # Assign velocities
                                                    # Temperature 2.4, random number seed, zero linear momentum
                                                                                # Gaussian distribution

timestep 0.002   # simulation timestep
thermo 100       # output thermodynamic data every 100 steps

# Define a fix  in this case with index 1 applied to all
# particles in the simulation. This fix is for simulations
# in the anisotropic NPT ensemble. Note that we use the MTK
# correction.
fix 1 all npt temp 2.4 2.4 0.1 iso 5.68 5.68 0.5 mtk yes tchain 5 pchain 5 # Use NPT ensemble
                                                                         # Set temperature and pressure and damping
                                                                         # Numbers of thermostats in chain and in barostat
run 10000          # run for 10000 steps
Per MPI rank memory allocation (min/avg/max) = 3.633 | 3.633 | 3.634 Mbytes
Step Temp E_pair E_mol TotEng Press Volume 
       0          2.4   -7.0327211            0   -3.4368878   -3.5977146          864 
     100    1.9056284   -5.8027623            0   -2.9476281     6.108972    842.39628 
     200    1.9753368    -5.389073            0   -2.4294972    5.7904706    889.31975 
     300    2.2295102    -5.240742            0   -1.9003473    5.3578351    921.78432 
     400    2.3587484   -5.0212369            0   -1.4872094     5.953202    938.33077 
     500    2.3523497   -4.7877038            0   -1.2632631    5.7652839    962.56224 
     600    2.4019412   -4.7456269            0   -1.1468851    5.7094688    971.63903 
     700    2.3175982   -4.8682766            0   -1.3959028    5.7096032    957.16627 
     800    2.4413902   -4.9389669            0   -1.2811201    5.5764084    951.57177 
     900    2.2852361   -4.9819655            0   -1.5580788    5.5883735      945.487 
    1000    2.3631921   -4.9713414            0    -1.430656    5.9658728    943.84311 
    1100    2.4182543   -4.9309738            0   -1.3077907    5.3749687    960.22795 
    1200    2.3727373   -4.7750578            0   -1.2200712     5.866176    965.26404 
    1300    2.3365963   -4.9533136            0   -1.4524757    6.1252536    945.77715 
    1400    2.3797627   -5.0110212            0   -1.4455087    5.4464203    949.61262 
    1500    2.4365972   -4.8546471            0   -1.2039815    5.2712705    971.10543 
    1600    2.3836912   -4.8153225            0    -1.243924    5.7186828    968.31559 
    1700    2.3427466    -4.897171            0   -1.3871183    6.0208557    950.31322 
    1800    2.3820469     -4.92027            0   -1.3513351     5.025094    971.05176 
    1900    2.5002318   -4.8040971            0   -1.0580902    5.7792585    967.84499 
    2000    2.3080003   -4.7927336            0   -1.3347401    5.7952613    970.76834 
    2100    2.5276436   -4.8409862            0   -1.0539091    5.9618834    960.72359 
    2200    2.3237749   -4.9071094            0   -1.4254814    5.0808818    968.63643 
    2300    2.4026018   -4.8342249            0   -1.2344933    5.7556414    962.09525 
    2400    2.4006847   -4.7946972            0    -1.197838    6.0264046    959.56954 
    2500    2.4162549   -4.8360437            0   -1.2158561    5.2307596    975.93796 
    2600     2.447166   -4.6965949            0   -1.0300944    5.6198567    983.71076 
    2700     2.333294   -4.7587841            0   -1.2628939    5.7709977    971.03724 
    2800    2.3037604   -4.8589287            0   -1.4072877    5.9863421    952.77146 
    2900    2.3909454   -4.8066196            0   -1.2243524    5.8870086    967.07639 
    3000    2.2737709   -4.8359489            0   -1.4292402    5.9444641    958.43324 
    3100    2.3003369   -4.8506353            0   -1.4041236    6.0014505     958.3535 
    3200    2.4443995   -4.8617268            0   -1.1993713    5.9646448    956.40397 
    3300    2.2792798   -4.8072602            0   -1.3922977    5.4031942    971.27173 
    3400    2.4846267   -4.7986643            0   -1.0760379      5.91047    969.24358 
    3500    2.3093995   -4.8136291            0   -1.3535392    5.6518844    968.76973 
    3600    2.3189609   -4.8581378            0   -1.3837224    6.1414205    950.04534 
    3700    2.2921663   -4.7064815            0   -1.2722115    6.0893032    965.51674 
    3800    2.4057047   -4.7381702            0   -1.1337897    5.7256825    975.68078 
    3900    2.4312789   -4.7892724            0   -1.1465749    5.9546732    963.98507 
    4000    2.3450119   -4.9132701            0   -1.3998234    5.3819827    967.63182 
    4100    2.5132426   -4.8737158            0   -1.1082153    5.7981702    961.40901 
    4200    2.3129185   -4.7861947            0   -1.3208325    5.4987306    973.83693 
    4300    2.4998229   -4.7888682            0   -1.0434739    5.7461004    970.25351 
    4400    2.3119767    -4.693628            0   -1.2296769     6.016701    966.79594 
    4500    2.4018303   -4.8911331            0   -1.2925575    5.8442648    956.83058 
    4600    2.4504928   -4.8320471            0   -1.1605623    5.5700453    967.60199 
    4700    2.4332074   -4.8754967            0     -1.22991    5.0541412    972.95817 
    4800    2.4377549    -4.949287            0   -1.2968868     5.844099    948.97591 
    4900    2.3058949   -4.9073195            0   -1.4524804     5.261439    964.37752 
    5000    2.4066587   -4.8190656            0   -1.2132558    6.1097123    959.28159 
    5100    2.4787427   -4.8793299            0   -1.1655192    5.0787954    976.28503 
    5200     2.385221   -4.8147955            0    -1.241105    5.8315004    963.11165 
    5300    2.3551099   -4.7154376            0   -1.1868614    6.0350875    969.81843 
    5400    2.4210341   -4.8549445            0   -1.2275965    5.1459117    978.88334 
    5500    2.4455094    -4.800965            0   -1.1369465    6.5616725    948.30672 
    5600    2.2892615   -4.8715973            0   -1.4416793    5.7638045    958.47331 
    5700    2.4156041   -4.8646922            0   -1.2454798    5.5187814    967.94893 
    5800    2.4284199   -4.8023678            0    -1.163954    5.5082411    972.02171 
    5900    2.4316552   -4.7055672            0    -1.062306    5.6021218    983.28367 
    6000    2.3524127   -4.7129284            0   -1.1883935    5.8873294    976.43524 
    6100    2.4001353   -4.8298744            0   -1.2338384    5.6189684    963.54162 
    6200    2.3654288   -4.7912928            0   -1.2472563     5.390185    976.50582 
    6300      2.45844   -4.6648848            0  -0.98149293    5.5711483    986.38636 
    6400    2.3448133   -4.7315661            0   -1.2184171    5.7560381    978.04131 
    6500     2.433749   -4.8299304            0   -1.1835321    6.0165411    958.35233 
    6600     2.367044   -4.9919012            0   -1.4454446    5.6214048    952.43935 
    6700    2.3579077   -4.8006253            0   -1.2678574    5.6762427    968.56281 
    6800    2.4825932   -4.8565152            0   -1.1369355    5.6827546    965.43746 
    6900    2.3176387   -4.8733064            0    -1.400872    5.4332751    965.41905 
    7000    2.4093838   -4.7845438            0    -1.174651    6.3234817    959.96172 
    7100    2.4054692   -4.7795047            0   -1.1754771    5.4357761    978.75629 
    7200    2.4071743   -4.8399751            0   -1.2333929    5.9210368     960.9529 
    7300    2.3677234   -4.8167253            0   -1.2692509    6.0730124    958.09967 
    7400    2.5362368   -4.8242781            0   -1.0243261    5.6678493     970.3679 
    7500    2.3487308   -4.8059388            0   -1.2869203     6.441257     951.4141 
    7600    2.4809378   -4.9457219            0   -1.2286223    4.8328957    975.01087 
    7700    2.4035909   -4.8278668            0   -1.2266533    5.8214643    963.76541 
    7800    2.3867562   -4.8172216            0    -1.241231     5.962986    960.00232 
    7900    2.3373237   -4.9004997            0    -1.398572    5.3438384    964.13993 
    8000    2.4265085   -4.8890139            0   -1.2534638    5.5863406    960.18407 
    8100    2.3311828   -4.8399283            0   -1.3472013    5.4909234    968.30691 
    8200    2.5062638   -4.7965209            0   -1.0414764    6.5577257     953.1613 
    8300    2.3143618   -4.8668381            0   -1.3993133    4.7984811    977.51326 
    8400    2.4801081    -4.885523            0   -1.1696666    6.2100198    946.26529 
    8500    2.3696349   -4.8921758            0   -1.3418374    5.3567435    969.38287 
    8600     2.448871     -4.85086            0    -1.181805    5.4142013    972.50185 
    8700    2.3970743   -4.8834199            0     -1.29197    5.5418683    962.71678 
    8800    2.4141338   -4.8637004            0   -1.2466909    5.6018702    964.66815 
    8900    2.3447521   -4.7886362            0   -1.2755788    6.3602819    957.39658 
    9000    2.3990801   -4.7992755            0   -1.2048204    5.0047849    983.77177 
    9100    2.3665784   -4.6766806            0   -1.1309216    6.3255979    966.21829 
    9200    2.3907042    -4.757793            0   -1.1758871     5.626375    977.56825 
    9300    2.4432312   -4.8664171            0   -1.2058119    4.9636877     978.8531 
    9400    2.3902353   -4.8063623            0    -1.225159    5.8442525    965.85083 
    9500    2.5059723   -4.8282723            0   -1.0736645    5.8941496    966.33017 
    9600    2.3427493   -4.9110556            0   -1.4009989    5.6956185    954.83743 
    9700    2.4120297   -4.9951688            0   -1.3813118    5.7707402    943.07917 
    9800      2.46057   -4.9572811            0   -1.2706979    5.4794157    954.64576 
    9900    2.3253151   -4.9085928            0   -1.4246571    5.5217339    959.58527 
   10000     2.480797   -4.8545006            0    -1.137612    6.7054856    943.67449 
Loop time of 1.81994 on 12 procs for 10000 steps with 864 atoms

Performance: 949484.270 tau/day, 5494.701 timesteps/s
99.6% CPU use with 12 MPI tasks x no OpenMP threads

MPI task timing breakdown:
Section |  min time  |  avg time  |  max time  |%varavg| %total
---------------------------------------------------------------
Pair    | 0.74524    | 0.80089    | 0.98078    |   6.4 | 44.01
Neigh   | 0.12818    | 0.13678    | 0.16466    |   2.6 |  7.52
Comm    | 0.50951    | 0.71691    | 0.77907    |   7.8 | 39.39
Output  | 0.0019041  | 0.0019756  | 0.0025115  |   0.4 |  0.11
Modify  | 0.14665    | 0.14946    | 0.15242    |   0.5 |  8.21
Other   |            | 0.01393    |            |       |  0.77

Nlocal:        72.0000 ave          79 max          63 min
Histogram: 1 0 1 1 2 1 3 0 2 1
Nghost:        1476.75 ave        1512 max        1442 min
Histogram: 1 1 2 0 0 4 2 0 1 1
Neighs:        7515.67 ave        7980 max        6553 min
Histogram: 1 0 0 0 1 3 2 0 2 3

Total # of neighbors = 90188
Ave neighs/atom = 104.38426
Neighbor list builds = 842
Dangerous builds = 64

# Equilibrate just above the melting temperature to avoid step fn in T

fix 1 all npt temp 1.25 1.25 0.1 iso 5.68 5.68 0.5 mtk yes tchain 5 pchain 5
run 2000
Per MPI rank memory allocation (min/avg/max) = 3.634 | 3.635 | 3.635 Mbytes
Step Temp E_pair E_mol TotEng Press Volume 
   10000     2.480797   -4.8545006            0    -1.137612    6.7054856    943.67449 
   10100    1.8460199   -5.1817353            0   -2.4159104    5.7282459    916.06474 
   10200    1.6019551   -5.6134248            0   -3.2132732    5.9796878    867.37594 
   10300    1.4812703   -6.0075794            0   -3.7882456    5.7779387    832.73915 
   10400    1.3536562   -6.2377243            0   -4.2095901    5.3734508    818.15357 
   10500    1.2487875   -6.3397366            0   -4.4687234    5.6307206    803.92279 
   10600    1.2845439   -6.5172253            0   -4.5926396    6.1145404    785.63472 
   10700    1.2707909   -6.6082298            0   -4.7042497    6.1771325     778.7693 
   10800    1.2119398   -6.6053714            0   -4.7895657    5.6369527    785.17546 
   10900    1.2560527   -6.6136693            0   -4.7317709    5.1617429    790.35065 
   11000    1.2608329   -6.5779792            0   -4.6889188    5.3374141    790.22967 
   11100    1.3011789   -6.5879099            0   -4.6384005    5.8835073     782.8388 
   11200    1.2444037   -6.6034579            0   -4.7390128    5.7826839    783.29905 
   11300    1.2216496   -6.6224001            0   -4.7920467    5.2624134    787.21901 
   11400    1.2634647    -6.591902            0   -4.6988985     5.731859    785.59581 
   11500    1.1648281   -6.4584265            0   -4.7132067    5.9702621    789.55866 
   11600    1.2757181   -6.4583014            0    -4.546939    6.3525225    786.44114 
   11700    1.2977299   -6.5769275            0   -4.6325857    5.6907918    786.13631 
   11800    1.1971956   -6.5906827            0   -4.7969678    5.8110615    782.28271 
   11900    1.2350104   -6.6090106            0   -4.7586392    5.3635595    787.20075 
   12000    1.2467221   -6.5590263            0   -4.6911076    5.5955045    785.66117 
Loop time of 0.438797 on 12 procs for 2000 steps with 864 atoms

Performance: 787607.377 tau/day, 4557.913 timesteps/s
99.6% CPU use with 12 MPI tasks x no OpenMP threads

MPI task timing breakdown:
Section |  min time  |  avg time  |  max time  |%varavg| %total
---------------------------------------------------------------
Pair    | 0.17356    | 0.19637    | 0.24396    |   4.2 | 44.75
Neigh   | 0.024334   | 0.026302   | 0.030918   |   1.2 |  5.99
Comm    | 0.12724    | 0.17957    | 0.2038     |   4.8 | 40.92
Output  | 0.00041291 | 0.00043362 | 0.00054815 |   0.0 |  0.10
Modify  | 0.030751   | 0.03185    | 0.032467   |   0.3 |  7.26
Other   |            | 0.004273   |            |       |  0.97

Nlocal:        72.0000 ave          79 max          64 min
Histogram: 1 0 2 1 2 0 2 1 2 1
Nghost:        1680.25 ave        1697 max        1666 min
Histogram: 3 0 1 0 2 3 0 1 1 1
Neighs:        9090.58 ave       10319 max        7524 min
Histogram: 1 1 0 0 3 2 1 1 1 2

Total # of neighbors = 109087
Ave neighs/atom = 126.25810
Neighbor list builds = 130
Dangerous builds = 6

#############################
# L I N E A R  Q U E N C H  #
#############################

# Define solid atoms. This closely follows ten Wolde  Ruiz-Montero and Frenkel  Faraday Discuss  1996  104  93-110
# Compute components of the per-atom q6 vector
compute q6 all orientorder/atom degrees 1 6 components 6 nnn NULL cutoff 1.3 # compute the Q6 parameter.
                                                                             # Use all neighbours within 1.3 unit cell.

# get number of connections
compute coord_number all coord/atom orientorder q6 0.5

# An atom is solid if it has 8 or more connections (of a possible 14)
variable is_solid atom c_coord_number>=8
group solid dynamic all var is_solid    # Must be dynamic to update
dynamic group solid defined

# do clustering
compute cluster solid cluster/atom 1.3 # Create a cluster where all atoms within are solid and max 1.3 units from another member

# define chunks one chunk per cluster
compute clus_chunks solid chunk/atom c_cluster nchunk every compress yes  # Says which atoms are in which chunk

# count the size of each chunk
compute size_chunks solid property/chunk clus_chunks count


# Find the maximum entry in the vector of chunk sizes
variable max_n equal max(c_size_chunks)


# Thermo style which includes this variable
# thermo_style custom step temp pe vol v_max_n

thermo ${N}  # Print the thermo information every 100 steps
thermo 1000  

# Reset the npt fix at a lower temperature (below freezing)
fix 1  all npt temp  ${temp} ${temp}  0.1  iso  5.68  5.68  0.5  mtk yes tchain  5  pchain  5
fix 1  all npt temp  0.65 ${temp}  0.1  iso  5.68  5.68  0.5  mtk yes tchain  5  pchain  5
fix 1  all npt temp  0.65 0.65  0.1  iso  5.68  5.68  0.5  mtk yes tchain  5  pchain  5

dump dmp2 all dcd ${N} traj.dcd
dump dmp2 all dcd 1000 traj.dcd

compute msd all msd com yes
variable twopoint equal c_msd[4]/6/(step*dt+1.0e-6)
fix 9 all vector 10 c_msd[4]
variable fit equal slope(f_9)/6/(10*dt)
thermo_style custom step temp pe c_msd[4] v_twopoint v_fit v_max_n

fix 1 all npt temp 1.25 ${temp} 0.1 iso 5.68 5.68 0.5 mtk yes tchain 5 pchain 5
fix 1 all npt temp 1.25 0.65 0.1 iso 5.68 5.68 0.5 mtk yes tchain 5 pchain 5
run 100000 # 5000000  # Run for this many steps
Neighbor list info ...
  update every 1 steps, delay 10 steps, check yes
  max neighbors/atom: 2000, page size: 100000
  master list distance cutoff = 3.8
  ghost atom cutoff = 3.8
  binsize = 1.9, bins = 5 5 5
  4 neighbor lists, perpetual/occasional/extra = 1 3 0
  (1) pair lj/cut, perpetual
      attributes: half, newton on
      pair build: half/bin/atomonly/newton
      stencil: half/bin/3d
      bin: standard
  (2) compute orientorder/atom, occasional
      attributes: full, newton on
      pair build: full/bin/atomonly
      stencil: full/bin/3d
      bin: standard
  (3) compute coord/atom, occasional
      attributes: full, newton on
      pair build: full/bin/atomonly
      stencil: full/bin/3d
      bin: standard
  (4) compute cluster/atom, occasional
      attributes: full, newton on
      pair build: full/bin/atomonly
      stencil: full/bin/3d
      bin: standard
Per MPI rank memory allocation (min/avg/max) = 9.685 | 9.689 | 9.694 Mbytes
Step Temp PotEng c_msd[4] v_twopoint v_fit v_max_n 
   12000    1.2467221   -6.5590263 8.3451258e-31 5.795226e-33 8.3333333e+20            1 
   13000    1.1980422    -6.505554    0.5810149 0.0037244543  0.048731329            1 
   14000    1.1971452   -6.6108596    1.0314464 0.0061395619  0.043043919            1 
   15000    1.2406717   -6.6117494    1.5490865 0.0086060356  0.041195718       -1e+20 
   16000    1.2061347   -6.6485741    1.9405373  0.010106965  0.040439385       -1e+20 
   17000    1.2408436   -6.5955418    2.3867355  0.011699684  0.039089839            1 
   18000    1.2347866   -6.7103879    2.8869835  0.013365664  0.038745391            1 
   19000    1.1812797   -6.6451119    3.2767001  0.014371491  0.038402196            1 
   20000    1.1916275   -6.6486018    3.5685168   0.01486882  0.037544552            4 
   21000    1.2196304   -6.6258438    4.0244992  0.015970234  0.036564421            3 
   22000    1.0867226   -6.6592455     4.401311  0.016671632  0.035985092            2 
   23000    1.2240827   -6.6874489     4.761655  0.017252373  0.035457099            1 
   24000     1.165052   -6.6569973    5.3609823  0.018614522  0.035394179       -1e+20 
   25000    1.1234185   -6.6981681    5.7262418  0.019087472  0.035479041            1 
   26000    1.1493738   -6.7069509    6.2870504  0.020150802   0.03563428            1 
   27000     1.149976   -6.7569471    6.8317626  0.021085687  0.036008666            1 
   28000    1.1427459   -6.7424797    7.1357271  0.021237283  0.036222215            1 
   29000    1.2052049   -6.8189973    7.6714271   0.02204433  0.036404616            1 
   30000    1.0954868    -6.773763    7.6792873  0.021331353  0.036182596            1 
   31000    1.1662434   -6.7638376    8.1393358  0.021879935  0.035804767            2 
   32000    1.0926698   -6.8029517    8.4360559  0.021968895  0.035342775            1 
   33000    1.1132796   -6.8066643    8.7761442   0.02216198  0.034992433       -1e+20 
   34000    1.0890317   -6.8615942    9.0340182  0.022142201  0.034624699            2 
   35000    1.0541824   -6.8212715    9.3971842  0.022374248  0.034231876            2 
   36000    1.0513482   -6.7989225    9.6261532  0.022282762  0.033804496            3 
   37000   0.99426317   -6.8029109     9.968871  0.022452412  0.033418858            1 
   38000    1.0844289   -6.8602976    10.202443  0.022373779  0.032997808            3 
   39000    1.0957177   -6.8062801    10.548176  0.022538837  0.032640146       -1e+20 
   40000    1.1093276   -6.9306833    10.909902  0.022728963  0.032265512            4 
   41000    1.1106576   -6.9786759    11.113107  0.022587615  0.031927284            2 
   42000    1.0381839   -6.8809039     11.43947   0.02269736  0.031575906            4 
   43000    1.0387543   -6.8699051    11.614717   0.02250914  0.031228605            1 
   44000    1.0734574   -6.8409619    11.710052  0.022178128  0.030835702            1 
   45000    1.0729616   -6.9689752    11.660129  0.021592831  0.030372661            2 
   46000    1.0902216    -7.011882    11.981191  0.021705056  0.029891883            2 
   47000    1.0690663   -6.9604889    12.316115  0.021837083  0.029481751            1 
   48000    1.1180226   -6.9779964    12.795579  0.022214546  0.029159451            5 
   49000    1.0497872   -7.0251004    13.304361  0.022626465  0.028929981            1 
   50000    1.0647511   -7.0285153    13.426093  0.022376822  0.028734136            4 
   51000    1.0117973    -7.007785    13.761688  0.022486418  0.028526606            5 
   52000   0.99561852   -7.0754565     14.10352  0.022601794  0.028351161            1 
   53000   0.96047779    -7.078438    14.433701  0.022694497   0.02818432            2 
   54000    1.0004182   -7.0668997    14.531579  0.022425276  0.028006014       -1e+20 
   55000    1.0220973   -7.0397065    14.690237  0.022257935  0.027813047            2 
   56000   0.96143221   -7.0525409    14.899834  0.022172372  0.027586271            2 
   57000   0.97589843   -7.1199499    15.135084  0.022127316  0.027374781       -1e+20 
   58000   0.98101296   -7.1039555    15.272046  0.021942595  0.027148234            1 
   59000   0.92873591   -7.1231992    15.522071  0.021923829  0.026925559            1 
   60000   0.97636312   -7.2110945    15.732565  0.021850784  0.026701738            1 
   61000   0.94087918   -7.1390457    15.936375  0.021771004  0.026495915            1 
   62000   0.93831845   -7.1999012    16.182768  0.021751031  0.026296722            2 
   63000    0.9694151   -7.1185204    16.336647  0.021609321  0.026068926            4 
   64000   0.95024005   -7.1514027    16.432724  0.021396776  0.025844579            1 
   65000   0.93573064   -7.2109062    16.719191  0.021434861  0.025635397            1 
   66000   0.91036725   -7.2903985    17.186766  0.021700462  0.025451726            1 
   67000   0.90966553   -7.2705385     17.16459  0.021348992  0.025253456            2 
   68000   0.92853628   -7.2989703    17.483217  0.021425511  0.025066908            1 
   69000   0.89361801   -7.2000076     17.50977  0.021147065  0.024878087            1 
   70000   0.90798108   -7.2448215    17.868157  0.021271616  0.024695144            3 
   71000   0.85421806   -7.3157955    18.052152  0.021187972  0.024534303            1 
   72000   0.88741197   -7.2975965    18.215117  0.021082311  0.024369501            2 
   73000   0.87944124   -7.3451534      18.2501  0.020833447  0.024203262            1 
   74000   0.86935152   -7.3504502    18.441861  0.020767861  0.024036991            1 
   75000   0.88466561   -7.3597359    18.783391  0.020870434  0.023886506            2 
   76000   0.83220351   -7.3773377    18.940176  0.020767737  0.023729761            3 
   77000   0.88799679   -7.3840008    19.103405  0.020674681  0.023565663            1 
   78000   0.86667368   -7.3310217    19.276231  0.020594264  0.023410243            3 
   79000   0.86352502   -7.3321166    19.397461  0.020461457  0.023255265            2 
   80000   0.86900801   -7.3962588    19.443286  0.020253423  0.023094947            1 
   81000   0.80779111   -7.4444441    19.613146  0.020178133  0.022924618            3 
   82000   0.85720266    -7.457048    19.750598  0.020071746  0.022755053            1 
   83000   0.82839361   -7.4270877    19.672915  0.019751923  0.022573524            1 
   84000   0.78932522   -7.4675561    19.796431  0.019639316  0.022388704       -1e+20 
   85000   0.75982873   -7.4846632     19.83803  0.019449049  0.022199192            4 
   86000   0.82618676   -7.5004952    19.817014  0.019202532  0.022006051            1 
   87000   0.77635713   -7.4843825    19.957434  0.019116316  0.021808456            3 
   88000   0.76358505   -7.5051223    20.051194  0.018987873   0.02161345            1 
   89000   0.83108765   -7.5252797    20.082719  0.018804044  0.021415424            4 
   90000   0.79334191   -7.5116098    20.107569  0.018618119    0.0212204            4 
   91000   0.81003532   -7.5446409    20.361289  0.018645869  0.021027871            2 
   92000   0.75063035   -7.5784937    20.406708  0.018484337  0.020837675            6 
   93000    0.7807248   -7.5687263    20.606149  0.018464291  0.020648957            3 
   94000    0.7431949   -7.5025763    20.607631  0.018269176  0.020462184            4 
   95000   0.73961882    -7.558267    20.648038  0.018112314   0.02027253            1 
   96000   0.71183435   -7.6065322    20.568024  0.017854188  0.020077343            1 
   97000   0.72824446   -7.6018332    20.511373  0.017621454   0.01987847            4 
   98000    0.7548098   -7.5886326    20.567365  0.017489256  0.019680009            1 
   99000   0.72876649    -7.643736    20.605705  0.017344869  0.019480814            1 
  100000   0.73008461   -7.6568121    20.653137  0.017210947  0.019284603            3 
  101000    0.7064561   -7.6793928     20.55113  0.016956378  0.019087306            2 
  102000   0.71014954   -7.6697519    20.722938  0.016930505  0.018887486            5 
  103000   0.71320274   -7.7105328    20.665966  0.016720037  0.018690676            4 
  104000   0.69566751   -7.6904269    20.592323  0.016500258  0.018488132            4 
  105000   0.68143443   -7.7262562    20.675789  0.016409357   0.01828938            1 
  106000   0.68267444   -7.7360684    20.768082  0.016327108  0.018093063            1 
  107000   0.70170878   -7.7598617    20.811352  0.016208218  0.017898603            3 
  108000   0.67905934   -7.7568946    20.733014  0.015997696  0.017705204            5 
  109000    0.7125703   -7.7882104      20.8115  0.015910932  0.017513362            1 
  110000    0.6713975   -7.8426538    20.986626  0.015898959  0.017323054            2 
  111000   0.68302214    -7.804297    20.779522  0.015600241  0.017133675            4 
  112000   0.63223115   -7.7736629    20.830286  0.015498724  0.016944439            2 
Loop time of 189.025 on 12 procs for 100000 steps with 864 atoms

Performance: 91416.242 tau/day, 529.029 timesteps/s
99.3% CPU use with 12 MPI tasks x no OpenMP threads

MPI task timing breakdown:
Section |  min time  |  avg time  |  max time  |%varavg| %total
---------------------------------------------------------------
Pair    | 10.949     | 11.976     | 12.725     |  14.9 |  6.34
Neigh   | 1.2475     | 1.2893     | 1.3198     |   2.1 |  0.68
Comm    | 6.2294     | 7.0948     | 8.2941     |  23.0 |  3.75
Output  | 0.16949    | 0.16962    | 0.17047    |   0.1 |  0.09
Modify  | 167.2      | 167.51     | 167.81     |   1.5 | 88.62
Other   |            | 0.991      |            |       |  0.52

Nlocal:        72.0000 ave          78 max          66 min
Histogram: 2 1 1 0 1 2 1 1 2 1
Nghost:        1812.17 ave        1823 max        1804 min
Histogram: 2 4 0 0 1 0 1 2 0 2
Neighs:        10206.2 ave       11793 max        8713 min
Histogram: 1 0 1 2 3 2 1 1 0 1
FullNghs:      20412.8 ave       22051 max       18677 min
Histogram: 2 1 0 2 0 2 2 0 1 2

Total # of neighbors = 244954
Ave neighs/atom = 283.51157
Neighbor list builds = 5322
Dangerous builds = 0

#clear
#
#next RN
#
#jump SELF
Total wall time: 0:03:11
