
units lj                  # Use reduced LJ style units
atom_style atomic         # Uncharged point particles
atom_modify map hash      # Needed for indexing of clusters etc
                          # Used to be able to find where atoms are in relation to each other.

lattice fcc 1.0 spacing 1 1 1
Lattice spacing in x,y,z = 1.5874011 1.5874011 1.5874011
region box block 0 6 0 6 0 6 units lattice
create_box 2 box
Created orthogonal box = (0.0000000 0.0000000 0.0000000) to (9.5244063 9.5244063 9.5244063)
  2 by 3 by 4 MPI processor grid
create_atoms 1 box
Created 864 atoms
  using lattice units in orthogonal box = (0.0000000 0.0000000 0.0000000) to (9.5244063 9.5244063 9.5244063)
  create_atoms CPU = 0.001 seconds
set type 1 type/fraction 2 0.2 78393
Setting atom values ...
  181 settings made for type/fraction
mass 1 1.0
mass 2 1.0
pair_style lj/cut  3.5
pair_modify tail  yes
pair_coeff 1  1  1.0  1.0   # Intearaction between 1 and 1 set with epsilon = 1 and sigma = 1
pair_coeff 1  2  1.5  0.8
pair_coeff 2  2  0.5  0.88

write_data data.0
System init for write_data ...
Neighbor list info ...
  update every 1 steps, delay 10 steps, check yes
  max neighbors/atom: 2000, page size: 100000
  master list distance cutoff = 3.8
  ghost atom cutoff = 3.8
  binsize = 1.9, bins = 6 6 6
  1 neighbor lists, perpetual/occasional/extra = 1 0 0
  (1) pair lj/cut, perpetual
      attributes: half, newton on
      pair build: half/bin/atomonly/newton
      stencil: half/bin/3d
      bin: standard
WARNING: Not all mixed pair coeffs generated from mixing. Use write_data with 'pair ij' option to store all pair coeffs. (../write_data.cpp:312)


#############################
#   M E L T   S Y S T E M   #
#############################

velocity all create 2.4 4344764 mom yes dist gaussian # Assign velocities
                                                    # Temperature 2.4, random number seed, zero linear momentum
                                                                                # Gaussian distribution

timestep 0.002   # simulation timestep
thermo 100       # output thermodynamic data every 100 steps

# Define a fix  in this case with index 1 applied to all
# particles in the simulation. This fix is for simulations
# in the anisotropic NPT ensemble. Note that we use the MTK
# correction.
fix 1 all npt temp 2.4 2.4 0.1 iso 5.68 5.68 0.5 mtk yes tchain 5 pchain 5 # Use NPT ensemble
                                                                         # Set temperature and pressure and damping
                                                                         # Numbers of thermostats in chain and in barostat
run 10000          # run for 10000 steps
Per MPI rank memory allocation (min/avg/max) = 3.616 | 3.616 | 3.616 Mbytes
Step Temp E_pair E_mol TotEng Press Volume 
       0          2.4   -7.0327211            0   -3.4368878   -3.5977146          864 
     100    1.8228813     -5.69583            0   -2.9646728    6.5937145     841.6964 
     200    2.0360717   -5.4507113            0   -2.4001386    6.0312518    881.37029 
     300     2.190698   -5.2026976            0   -1.9204538    5.6104989    915.77176 
     400    2.3225359   -5.0018791            0   -1.5221074    5.6235621    943.77826 
     500    2.4153228   -4.8609628            0   -1.2421719    5.8703777    955.81365 
     600    2.4943593    -4.876756            0   -1.1395475    4.9122186    980.30849 
     700    2.2979819   -4.7379807            0   -1.2949975    5.7550869    974.02013 
     800    2.4763186   -4.8971266            0   -1.1869479    5.8024223    956.04922 
     900     2.352489   -4.9331262            0   -1.4084769    5.0491449    965.99834 
    1000    2.5019632   -4.8649293            0   -1.1163282    6.1865038    952.69462 
    1100    2.2854623    -4.862151            0   -1.4379254    5.2980341    972.56256 
    1200    2.4238712   -4.7284915            0   -1.0968928    6.3316594    966.53291 
    1300    2.3951901     -4.82108            0   -1.2324532    5.3505613      976.938 
    1400    2.4432041   -4.9120534            0   -1.2514889    5.5557015    962.34391 
    1500    2.3291856   -4.7343907            0    -1.244656    6.3500754    957.86485 
    1600     2.388848    -4.897012            0   -1.3178873    5.4668199    965.19698 
    1700    2.3854949   -4.8720507            0   -1.2979499    6.2100893     949.8117 
    1800    2.3355624     -4.89844            0   -1.3991511    5.7303706    954.81217 
    1900    2.4589232   -4.8800841            0   -1.1959682    5.7254714    960.45296 
    2000    2.4239277   -4.8122961            0   -1.1806128    5.3978646    969.93355 
    2100    2.3600837   -4.9367853            0   -1.4007571    5.6625375    952.46895 
    2200    2.3422283   -4.8762431            0    -1.366967    5.9771293    953.47995 
    2300    2.3622025   -4.8014264            0   -1.2622237    6.0924442    959.85758 
    2400    2.4447585   -4.8796585            0    -1.216765    5.3511053    967.31915 
    2500     2.369182   -4.7529949            0    -1.203335    5.7349109    972.93094 
    2600    2.4262541    -4.741483            0    -1.106314    5.9082829    970.36485 
    2700    2.2980133   -4.7269839            0   -1.2839536    6.0633375     966.9442 
    2800    2.3565272   -4.8589519            0   -1.3282523    5.9173204    955.67957 
    2900    2.4464254   -4.9807615            0   -1.3153707    5.1073333    962.38187 
    3000    2.3136438   -4.8110029            0    -1.344554    5.8262776    963.78498 
    3100    2.4720532    -4.785333            0   -1.0815449    5.6878838     971.3107 
    3200    2.3624736   -4.8331996            0   -1.2935908    5.8044673    958.33804 
    3300    2.3714094   -4.8108638            0   -1.2578667     6.178105    956.72728 
    3400    2.3910303   -4.7385573            0   -1.1561629    5.2671592    986.75758 
    3500    2.5207471   -4.7649525            0  -0.98820813     6.091077    966.31889 
    3600    2.3730981   -4.9188295            0   -1.3633024    4.8075633    975.06256 
    3700    2.3749409   -4.8748467            0   -1.3165586    6.0017775    952.92207 
    3800    2.3656043   -4.8592783            0   -1.3149788    6.2491528    950.13486 
    3900    2.3707043   -4.8999891            0   -1.3480484    5.0969274    970.24324 
    4000    2.4822718   -4.8342128            0   -1.1151146    6.2952862    952.63371 
    4100    2.3310262   -4.8885382            0   -1.3960458    5.0046164    975.22958 
    4200    2.4426451   -4.8078599            0    -1.148133    5.5816915    973.24857 
    4300    2.4757155    -4.793096            0   -1.0838209    5.7021493     972.3409 
    4400    2.3800571    -4.911179            0   -1.3452253    5.5279055    957.39494 
    4500    2.4271078   -4.9022085            0   -1.2657606      5.52281    960.55182 
    4600    2.4248837    -4.712801            0   -1.0796853    5.9764997    971.45291 
    4700    2.3643314    -4.700164            0   -1.1577717    5.8183834     978.5003 
    4800    2.3089967   -4.8067683            0   -1.3472819     5.704518    963.44947 
    4900    2.3926138   -4.8898008            0   -1.3050339    5.9202189    952.38646 
    5000     2.423794   -4.7890904            0   -1.1576073    5.6254786    970.25984 
    5100    2.3914967   -4.8185394            0   -1.2354462    5.1289499    976.93536 
    5200    2.2732818   -4.8000289            0   -1.3940529    6.3291806    951.08932 
    5300    2.4119872    -4.907801            0   -1.2940076    5.3891094    963.11915 
    5400    2.4269685   -4.7885549            0   -1.1523157    5.7811697    973.15934 
    5500    2.3178454   -4.7698474            0   -1.2971034    5.8152424    970.03125 
    5600    2.4620174   -4.7872379            0   -1.0984862    5.6473705     970.9215 
    5700    2.4587865   -4.7047252            0   -1.0208142    5.3253929    990.07705 
    5800    2.3786661    -4.695749            0   -1.1318795     5.534923    986.02023 
    5900    2.4789927   -4.7591015            0   -1.0449163    6.2657747     963.2943 
    6000    2.2852536   -4.9171338            0   -1.4932209    4.5824874    980.11888 
    6100    2.4591552   -4.8676218            0   -1.1831583    6.1461662    955.27843 
    6200    2.4705247   -4.9115482            0   -1.2100502    5.0063013    976.53404 
    6300    2.3492862   -4.7473937            0   -1.2275431    5.6843113    971.80356 
    6400    2.3837786   -4.8280674            0    -1.256538    5.9438966    958.16187 
    6500    2.3496231   -4.7949722            0   -1.2746168    5.4529344    975.18984 
    6600    2.5691791   -4.8472498            0  -0.99794152    6.1170059    954.65523 
    6700    2.2205453   -4.7659938            0    -1.439031    5.1578891    981.30704 
    6800     2.501865   -4.8566165            0   -1.1081625    5.7801395    960.58879 
    6900     2.304866   -4.7787334            0   -1.3254359    5.4490969    971.12244 
    7000    2.4720093   -4.8037141            0   -1.0999918    6.0222172    963.27278 
    7100    2.3674999   -4.7708392            0   -1.2236995    5.7119822     973.4107 
    7200    2.4438874   -4.8418545            0   -1.1802662    5.3745544    971.95832 
    7300    2.4435442   -4.9231173            0   -1.2620432    5.5482446    960.95571 
    7400    2.3767329   -4.8541813            0   -1.2932082    4.9959704    979.74212 
    7500    2.4077787   -4.6199435            0   -1.0124555    6.5147109    968.65247 
    7600    2.3215274   -4.7166326            0   -1.2383718    5.9634583    972.20049 
    7700    2.4420777   -4.8970419            0   -1.2381652    5.3712084    965.43181 
    7800    2.3108961   -4.9552356            0   -1.4929034    5.9911668    942.60902 
    7900    2.3705935   -4.9652011            0   -1.4134264    5.3522983    954.24481 
    8000    2.4072547   -4.7555844            0   -1.1488815    5.9320711    968.14692 
    8100    2.4398177   -4.8684302            0   -1.2129395    5.0798128    977.20656 
    8200    2.3971244     -4.92095            0   -1.3294251    5.5630114    959.43568 
    8300    2.3866417   -4.9467621            0   -1.3709431    5.2170798    959.45806 
    8400    2.4748746   -4.8817031            0   -1.1736879    5.3798864    967.28166 
    8500     2.527619   -4.8806862            0   -1.0936459    5.4240567    972.16087 
    8600     2.364458   -4.8297912            0   -1.2872092    5.0252004     975.7343 
    8700    2.4364104   -4.7908571            0   -1.1404713    6.1052995    958.65005 
    8800    2.4346087   -4.7492954            0   -1.1016091    5.2378276    987.75554 
    8900    2.4717399   -4.7653027            0   -1.0619841    5.9327686    968.42186 
    9000     2.374541   -4.7858326            0   -1.2281435    5.4980212    971.53465 
    9100    2.4977836   -4.7957605            0   -1.0534215    5.4870623     978.1523 
    9200    2.4884659   -4.6405996            0  -0.91222097    5.4166885    999.27054 
    9300    2.3534572   -4.5956365            0   -1.0695366    5.5432743    994.72525 
    9400    2.4745898   -4.7713356            0   -1.0637471    6.0460657    966.63895 
    9500    2.3308809   -4.8559709            0   -1.3636962    5.2499065    972.88509 
    9600    2.4785897   -4.8038405            0   -1.0902591    5.8272141     962.1997 
    9700    2.3213464   -4.8345228            0   -1.3565332    5.6209799    968.16131 
    9800    2.5314079   -4.8120652            0    -1.019348    6.2418036    959.55855 
    9900    2.3995763   -4.7511652            0   -1.1559667    4.8872212    995.07771 
   10000    2.3437666   -4.6918226            0   -1.1802417    6.1001962    970.86725 
Loop time of 1.73164 on 24 procs for 10000 steps with 864 atoms

Performance: 997900.496 tau/day, 5774.887 timesteps/s
99.6% CPU use with 24 MPI tasks x no OpenMP threads

MPI task timing breakdown:
Section |  min time  |  avg time  |  max time  |%varavg| %total
---------------------------------------------------------------
Pair    | 0.39803    | 0.43399    | 0.47852    |   3.4 | 25.06
Neigh   | 0.072864   | 0.077534   | 0.084837   |   1.1 |  4.48
Comm    | 0.78626    | 0.84402    | 0.90114    |   3.0 | 48.74
Output  | 0.0051045  | 0.0051469  | 0.0055156  |   0.1 |  0.30
Modify  | 0.32638    | 0.34633    | 0.36757    |   2.0 | 20.00
Other   |            | 0.02461    |            |       |  1.42

Nlocal:        36.0000 ave          43 max          31 min
Histogram: 1 2 6 4 2 4 3 1 0 1
Nghost:        1183.33 ave        1199 max        1165 min
Histogram: 1 1 3 4 1 4 2 4 2 2
Neighs:        3666.46 ave        4544 max        2995 min
Histogram: 2 1 6 3 2 4 3 0 1 2

Total # of neighbors = 87995
Ave neighs/atom = 101.84606
Neighbor list builds = 847
Dangerous builds = 82

# Equilibrate just above the melting temperature to avoid step fn in T

fix 1 all npt temp 1.25 1.25 0.1 iso 5.68 5.68 0.5 mtk yes tchain 5 pchain 5
run 2000
Per MPI rank memory allocation (min/avg/max) = 3.617 | 3.617 | 3.618 Mbytes
Step Temp E_pair E_mol TotEng Press Volume 
   10000    2.3437666   -4.6918226            0   -1.1802417    6.1001962    970.86725 
   10100    1.8881745   -5.1238236            0   -2.2948399    5.7870039    924.10656 
   10200    1.6445341   -5.5628142            0   -3.0988681    5.6881126    875.01389 
   10300    1.5162839   -5.9540407            0   -3.6822473    6.0161863    831.35562 
   10400    1.3678086   -6.2151504            0   -4.1658122    5.4884204    816.50593 
   10500    1.2926182   -6.3948789            0   -4.4581957    5.5786086    799.36758 
   10600    1.2402217   -6.4836428            0   -4.6254633    5.5206759    793.18803 
   10700    1.2641192    -6.501687            0   -4.6077028    5.7083003    789.05083 
   10800    1.2153187   -6.5807719            0   -4.7599037    5.0807761    791.90343 
   10900    1.2730822   -6.5458388            0   -4.6384257    5.0207582    793.59643 
   11000    1.2951129   -6.5166676            0   -4.5762468    5.0176616    798.08963 
   11100    1.2443925   -6.5219276            0   -4.6574993    5.6982914    787.67117 
   11200    1.2016515   -6.4735613            0   -4.6731702    6.4293852    783.22837 
   11300    1.2336418   -6.5920699            0    -4.743749    5.7665372    782.63944 
   11400    1.2304791   -6.4894805            0   -4.6458982    6.2748459    783.31379 
   11500    1.2721727   -6.4792471            0   -4.5731968    6.6998104    780.88014 
   11600    1.1898414    -6.492606            0   -4.7099097    6.2257035    785.69137 
   11700    1.2717327   -6.5814416            0   -4.6760504    5.4854268      787.525 
   11800    1.2272573   -6.4881142            0   -4.6493589     5.235245    796.08244 
   11900    1.2307374   -6.5895406            0   -4.7455712    5.0240067    793.48107 
   12000    1.3025412   -6.6097867            0   -4.6582362    5.3629848    786.94145 
Loop time of 0.383004 on 24 procs for 2000 steps with 864 atoms

Performance: 902340.332 tau/day, 5221.877 timesteps/s
99.7% CPU use with 24 MPI tasks x no OpenMP threads

MPI task timing breakdown:
Section |  min time  |  avg time  |  max time  |%varavg| %total
---------------------------------------------------------------
Pair    | 0.093006   | 0.10282    | 0.11831    |   2.1 | 26.84
Neigh   | 0.013081   | 0.014192   | 0.016093   |   0.6 |  3.71
Comm    | 0.16816    | 0.18703    | 0.20273    |   1.7 | 48.83
Output  | 0.00098152 | 0.00099456 | 0.0010494  |   0.0 |  0.26
Modify  | 0.065409   | 0.070113   | 0.075355   |   0.9 | 18.31
Other   |            | 0.007863   |            |       |  2.05

Nlocal:        36.0000 ave          40 max          31 min
Histogram: 1 2 2 2 5 2 1 3 3 3
Nghost:        1390.29 ave        1411 max        1374 min
Histogram: 2 2 3 2 7 4 0 1 1 2
Neighs:        4531.04 ave        5118 max        3841 min
Histogram: 1 1 2 4 2 2 5 3 1 3

Total # of neighbors = 108745
Ave neighs/atom = 125.86227
Neighbor list builds = 130
Dangerous builds = 0

#############################
# L I N E A R  Q U E N C H  #
#############################

# Define solid atoms. This closely follows ten Wolde  Ruiz-Montero and Frenkel  Faraday Discuss  1996  104  93-110
# Compute components of the per-atom q6 vector
compute q6 all orientorder/atom degrees 1 6 components 6 nnn NULL cutoff 1.3 # compute the Q6 parameter.
                                                                             # Use all neighbours within 1.3 unit cell.

# get number of connections
compute coord_number all coord/atom orientorder q6 0.5

# An atom is solid if it has 8 or more connections (of a possible 14)
variable is_solid atom c_coord_number>=8
group solid dynamic all var is_solid    # Must be dynamic to update
dynamic group solid defined

# do clustering
compute cluster solid cluster/atom 1.3 # Create a cluster where all atoms within are solid and max 1.3 units from another member

# define chunks one chunk per cluster
compute clus_chunks solid chunk/atom c_cluster nchunk every compress yes  # Says which atoms are in which chunk

# count the size of each chunk
compute size_chunks solid property/chunk clus_chunks count


# Find the maximum entry in the vector of chunk sizes
variable max_n equal max(c_size_chunks)


# Thermo style which includes this variable
# thermo_style custom step temp pe vol v_max_n

thermo ${N}  # Print the thermo information every 100 steps
thermo 100  

# Reset the npt fix at a lower temperature (below freezing)
fix 1  all npt temp  ${temp} ${temp}  0.1  iso  5.68  5.68  0.5  mtk yes tchain  5  pchain  5
fix 1  all npt temp  0.5 ${temp}  0.1  iso  5.68  5.68  0.5  mtk yes tchain  5  pchain  5
fix 1  all npt temp  0.5 0.5  0.1  iso  5.68  5.68  0.5  mtk yes tchain  5  pchain  5

dump dmp2 all dcd ${N} traj.dcd
dump dmp2 all dcd 100 traj.dcd

compute msd all msd com yes
variable twopoint equal c_msd[4]/6/(step*dt+1.0e-6)
fix 9 all vector 10 c_msd[4]
variable fit equal slope(f_9)/6/(10*dt)
thermo_style custom step temp pe c_msd[4] v_twopoint v_fit v_max_n

fix 1 all npt temp 1.25 ${temp} 0.1 iso 5.68 5.68 0.5 mtk yes tchain 5 pchain 5
fix 1 all npt temp 1.25 0.5 0.1 iso 5.68 5.68 0.5 mtk yes tchain 5 pchain 5
run 100000 # 5000000  # Run for this many steps
Neighbor list info ...
  update every 1 steps, delay 10 steps, check yes
  max neighbors/atom: 2000, page size: 100000
  master list distance cutoff = 3.8
  ghost atom cutoff = 3.8
  binsize = 1.9, bins = 5 5 5
  4 neighbor lists, perpetual/occasional/extra = 1 3 0
  (1) pair lj/cut, perpetual
      attributes: half, newton on
      pair build: half/bin/atomonly/newton
      stencil: half/bin/3d
      bin: standard
  (2) compute orientorder/atom, occasional
      attributes: full, newton on
      pair build: full/bin/atomonly
      stencil: full/bin/3d
      bin: standard
  (3) compute coord/atom, occasional
      attributes: full, newton on
      pair build: full/bin/atomonly
      stencil: full/bin/3d
      bin: standard
  (4) compute cluster/atom, occasional
      attributes: full, newton on
      pair build: full/bin/atomonly
      stencil: full/bin/3d
      bin: standard
Per MPI rank memory allocation (min/avg/max) = 9.581 | 9.585 | 9.588 Mbytes
Step Temp PotEng c_msd[4] v_twopoint v_fit v_max_n 
   12000    1.3025412   -6.6097867            0            0 8.3333333e+20            1 
   12100    1.2092912   -6.6159245  0.061910145 0.00042637839  0.055152592       -1e+20 
   12200    1.2476574   -6.6061192   0.12059396 0.00082372919  0.052745674            1 
   12300     1.267687   -6.5655796   0.17810226 0.0012066549  0.050746955            1 
   12400    1.1984988   -6.6162097   0.23552598 0.0015828358  0.049522278            1 
   12500    1.2003497   -6.6285912    0.2921931 0.0019479539  0.048752168            1 
   12600    1.2683053   -6.6055664   0.33820013 0.0022367732  0.047688358       -1e+20 
   12700    1.3157229   -6.5582876   0.38638779 0.0025353529  0.046554653       -1e+20 
   12800    1.2791545   -6.5577992   0.43944288 0.0028609561  0.045922378            1 
   12900    1.2122082   -6.5999158   0.49207045 0.0031787496  0.045331514       -1e+20 
   13000     1.195726   -6.5002872   0.52245239 0.0033490537  0.044418181       -1e+20 
   13100    1.2690557   -6.5296604   0.56613075 0.0036013405  0.043342034            1 
   13200    1.2035117   -6.5410269   0.61417847 0.0038773892  0.042515174       -1e+20 
   13300     1.208842   -6.6476031   0.65874781 0.0041274924  0.041737946            1 
   13400    1.2584812   -6.6347311   0.71737153 0.0044612656  0.041402093       -1e+20 
   13500    1.2673922   -6.4967385   0.76751235 0.0047377304  0.041337879       -1e+20 
   13600    1.2424189   -6.5408948   0.81002248 0.0049633728  0.041258446            1 
   13700    1.1871576   -6.6073309   0.84314582  0.005128624  0.040908752            1 
   13800     1.184266   -6.5717625   0.89047709 0.0053772769  0.040619309            1 
   13900    1.2073634   -6.5140548    0.9388687  0.005628709  0.040360321            1 
   14000    1.2860655   -6.5382457   0.98242261 0.0058477534    0.0401652            1 
   14100    1.2300071   -6.5735048    1.0353032 0.0061188128  0.040085497            1 
   14200    1.2101803   -6.6465943    1.0715791 0.0062886097  0.039893008            1 
   14300    1.2165566   -6.5469335     1.107467 0.0064537701  0.039625467            2 
   14400    1.2596299   -6.6738122    1.1603908  0.006715224  0.039426814            1 
   14500    1.1952495   -6.6844438      1.19873 0.0068892529   0.03921357            1 
   14600    1.2861123   -6.6363351    1.2249301 0.0069916102  0.038973952       -1e+20 
   14700    1.2406739   -6.6229512     1.270237 0.0072008898    0.0387268            1 
   14800     1.227038   -6.5612799    1.2990668 0.0073145652   0.03845917            1 
   14900    1.2092698   -6.5369538    1.3622802 0.0076190167  0.038275386            1 
   15000    1.2300913   -6.5959125    1.4079043 0.0078216901  0.038146364            1 
   15100    1.2175474   -6.7018608    1.4418349 0.0079571461  0.037995576            3 
   15200    1.2743786   -6.6319189    1.5192301 0.0083291123   0.03793113            2 
   15300     1.200693   -6.5273994    1.5897318 0.0086586698  0.038029919            1 
   15400    1.2364764   -6.5600852    1.6185331 0.0087582956  0.038120901            1 
   15500    1.2135084   -6.5713078    1.6543302 0.0088942481  0.038128763            1 
   15600    1.1996721   -6.6822872    1.7035548 0.0091001854  0.038109686            3 
   15700    1.2221423   -6.6823671    1.7923891  0.009513742  0.038156205            2 
   15800    1.2625183   -6.6023595     1.823827 0.0096193404  0.038262929            2 
   15900    1.2323107   -6.6598482    1.8508753 0.0097006038  0.038315443            1 
   16000    1.2243333   -6.7043179     1.919996 0.0099999788   0.03835177            1 
   16100    1.2678179   -6.6336197     1.996189  0.010332241  0.038459303            2 
   16200    1.1949755   -6.6185321    2.0659029  0.010627072   0.03861685            2 
   16300    1.2140337   -6.7007225    2.1167542  0.010821852  0.038807122       -1e+20 
   16400    1.2666958   -6.6394688     2.162886  0.010990274  0.038974828            1 
   16500    1.1982148   -6.6338914    2.2117707  0.011170559   0.03912851            2 
   16600    1.1555546   -6.6113251    2.2724874  0.011408069  0.039265597       -1e+20 
   16700    1.2572148   -6.6349893     2.331933  0.011636392  0.039417231            2 
   16800    1.2396642   -6.6199473    2.3559214  0.011686118  0.039566973            3 
   16900    1.2688864   -6.7459656    2.3817597  0.011744377  0.039646991            1 
   17000    1.2362549   -6.6922918    2.4510941  0.012015167  0.039708179       -1e+20 
   17100    1.1940517   -6.6591386    2.5105023  0.012234416  0.039767653            2 
   17200    1.2101398   -6.6272646    2.5367546  0.012290478  0.039804117            1 
   17300    1.2344656   -6.6496272    2.5545176  0.012304998  0.039843668            2 
   17400    1.2248197   -6.6661673    2.5915569  0.012411671  0.039830185            1 
   17500    1.2004538   -6.6734169    2.6118747  0.012437498  0.039772547       -1e+20 
   17600    1.1775703   -6.6701007    2.6612863  0.012600787  0.039704655            1 
   17700    1.2461167   -6.6442791    2.7170913  0.012792332  0.039651269       -1e+20 
   17800    1.1774021   -6.6798249    2.7497665  0.012873438  0.039585895            1 
   17900    1.1790476   -6.7025991    2.7736602  0.012912757  0.039498604            1 
   18000    1.2184109   -6.6376997    2.8016978  0.012970823  0.039393314            1 
   18100    1.2349088     -6.65103    2.8523601  0.013132412  0.039304776            1 
   18200    1.1544549   -6.6442717    2.9040173  0.013296782  0.039216678            1 
   18300    1.2270631   -6.6332333    2.9554325  0.013458253  0.039153896            1 
   18400     1.180485   -6.6241438    3.0006508  0.013589904  0.039103446       -1e+20 
   18500    1.1436885   -6.6993644    3.0208262  0.013607325  0.039021454       -1e+20 
   18600    1.2020901   -6.6791235    3.0997604  0.013887815  0.038952164       -1e+20 
   18700    1.1586036   -6.6506642    3.1489432  0.014032723  0.038904465            1 
   18800     1.160546   -6.5940366    3.1494616  0.013960379  0.038843778            2 
   18900    1.2044084   -6.5194768    3.2202347  0.014198565  0.038800136            1 
   19000    1.2120144   -6.5822449    3.2435377  0.014226042    0.0387485       -1e+20 
   19100    1.2303664   -6.6537534    3.2967726  0.014383824  0.038707207            2 
   19200    1.1831717   -6.7397972    3.3334025  0.014467893  0.038657699       -1e+20 
   19300    1.1452722   -6.7696264    3.3556201   0.01448886  0.038577711            1 
   19400    1.1907366   -6.7089075    3.3915472  0.014568501  0.038494889            1 
   19500    1.2297216   -6.7389867    3.4078193   0.01456333  0.038397812            1 
   19600    1.1334075   -6.7439348    3.4410795   0.01463044  0.038291262       -1e+20 
   19700    1.1707152   -6.6825237    3.4763595  0.014705412  0.038176132       -1e+20 
   19800    1.2151999   -6.6657366    3.5452834  0.014921226  0.038096167            2 
   19900    1.1823025   -6.6885784    3.5847568  0.015011544  0.038030835            1 
   20000    1.1521978   -6.7411069     3.628083  0.015117012  0.037951671            1 
   20100    1.1908386   -6.6772753    3.6723908  0.015225501  0.037881548            1 
   20200    1.2109029   -6.7162272    3.6628117  0.015110609  0.037793239            1 
   20300    1.1949722   -6.7477771     3.703333  0.015202516  0.037693297       -1e+20 
   20400    1.1691647   -6.7234276    3.7879109  0.015473492  0.037605164            3 
   20500    1.2027933   -6.6674103    3.8116412  0.015494476   0.03753682            2 
   20600    1.1812362   -6.5827667    3.8570514  0.015602958  0.037467477            4 
   20700    1.1818419   -6.5703267    3.9077996  0.015731882   0.03740725            1 
   20800     1.183951   -6.7110908    3.9749746  0.015925379  0.037360097            2 
   20900    1.1621663    -6.641629    4.0316659  0.016075223  0.037320452            1 
   21000    1.2143685   -6.6624937    4.0925032  0.016240092  0.037291716            1 
   21100    1.2003545   -6.7202841     4.140974  0.016354557    0.0372771       -1e+20 
   21200    1.1535508   -6.7692376    4.1856592  0.016453063  0.037263029            4 
   21300    1.1915763   -6.7391187    4.2311249  0.016553696  0.037244339            1 
   21400     1.178874   -6.6979123    4.2561571   0.01657382  0.037221059            1 
   21500    1.1198512   -6.7137754    4.2776267  0.016579948  0.037183896       -1e+20 
   21600    1.2090766   -6.7014115    4.2679664   0.01646592  0.037137401            1 
   21700    1.1676651    -6.682253    4.2937289  0.016488974  0.037082561            1 
   21800    1.2041429    -6.734223    4.3450474  0.016609508   0.03702007            2 
   21900    1.1700086   -6.7459395    4.4028971  0.016753794  0.036956767            1 
   22000     1.153754   -6.7378469    4.4270906  0.016769282  0.036887907            1 
   22100    1.1532533   -6.8169593     4.435283  0.016724295  0.036816417            1 
   22200    1.2038223    -6.744263     4.477072  0.016805826  0.036744669            1 
   22300    1.1966265   -6.7193066    4.5343281  0.016944425  0.036689283            1 
   22400    1.1343985   -6.7172396    4.5877507  0.017067525  0.036630351            1 
   22500    1.1650077   -6.7688967    4.5874149  0.016990425  0.036566494            2 
   22600    1.1810927   -6.7481659     4.601591  0.016967518  0.036493352            1 
   22700    1.1941125   -6.7753426    4.6606636  0.017109631  0.036427961       -1e+20 
   22800     1.134623   -6.7976692    4.7232161  0.017263216  0.036366559       -1e+20 
   22900    1.1759437    -6.739037    4.8059792  0.017489007  0.036325761            1 
   23000    1.1278031   -6.6909081    4.7988603  0.017387175  0.036273253            3 
   23100    1.1608838   -6.8499086    4.7921321  0.017287633  0.036204696            1 
   23200    1.1008575   -6.6493967    4.8703584  0.017494103  0.036138433       -1e+20 
   23300    1.2358274   -6.6810817    4.8965233  0.017512601  0.036097467            1 
   23400    1.1736935    -6.706119    4.9387764  0.017588235  0.036049432       -1e+20 
   23500     1.192368   -6.7558398    5.0119711  0.017772947  0.036005218       -1e+20 
   23600     1.129957   -6.7639715    5.0709309  0.017905829  0.035958772       -1e+20 
   23700    1.1883593   -6.7815132    5.0570475  0.017781461   0.03591198       -1e+20 
   23800    1.1434131   -6.8135309    5.0856742  0.017806982  0.035859512            1 
   23900    1.1530861    -6.715916    5.1820026  0.018068349  0.035813882            2 
   24000    1.1712202   -6.7025662    5.2188596   0.01812104  0.035782376       -1e+20 
   24100    1.1570412   -6.7858706    5.2140294  0.018029147  0.035741858            2 
   24200      1.18463   -6.7572703    5.2638961  0.018126364  0.035696321            2 
   24300    1.1618178   -6.6441535     5.343407  0.018324441  0.035660109            1 
   24400    1.1655341   -6.6931818    5.3399513  0.018237538   0.03561662            1 
   24500    1.1755117   -6.7675929    5.3594336  0.018229366  0.035561013            2 
   24600    1.1414865   -6.8075589    5.4414384  0.018433057  0.035514755            2 
   24700    1.1763068   -6.7643906    5.4664007  0.018442647  0.035476581            1 
   24800    1.1056483   -6.7232944    5.4909093  0.018450636  0.035430542       -1e+20 
   24900    1.2040252    -6.780984    5.4750257  0.018323379  0.035376863            1 
   25000    1.1189698    -6.753371    5.5102267  0.018367422  0.035325529       -1e+20 
   25100    1.1014744   -6.7153591    5.5621055  0.018466485  0.035268118            1 
   25200    1.1666496   -6.7177567    5.6185641  0.018579907  0.035218059            2 
   25300    1.1571616   -6.5731833    5.6690913  0.018672896  0.035181863            1 
   25400    1.1536283   -6.6902856    5.6676629  0.018594694   0.03513568            1 
   25500    1.1290978   -6.7444733    5.6997042  0.018626484   0.03508217            1 
   25600    1.1572231   -6.6694198     5.768063  0.018776246   0.03503398            1 
   25700    1.1723669   -6.7443247    5.7881682  0.018768379  0.034987675            1 
   25800     1.135235   -6.7562367    5.7913459  0.018705897  0.034936472            1 
   25900    1.2040038   -6.7525713     5.803952  0.018674234  0.034885564            1 
   26000    1.1580523   -6.7080249     5.901478  0.018914993  0.034839346            1 
   26100    1.0805074   -6.7452526    5.9610704  0.019032791  0.034800855            1 
   26200    1.1602506   -6.7858751    6.0156891  0.019133871  0.034762418            1 
   26300    1.1182894    -6.752175    6.0433018  0.019148611  0.034726389       -1e+20 
   26400    1.1421155   -6.8290396    6.0790632  0.019188962  0.034693176            1 
   26500    1.1380171   -6.7924124    6.1576921  0.019363811  0.034673061       -1e+20 
   26600    1.1454161   -6.7382107    6.2686381   0.01963859  0.034663822            2 
   26700    1.1401572   -6.7821256    6.3569789  0.019840758  0.034659686            2 
   26800    1.1295772   -6.8594466    6.3165682   0.01964107  0.034650925            1 
   26900    1.1538323   -6.7900508    6.4368334  0.019940624  0.034642852       -1e+20 
   27000    1.1152339   -6.7730059    6.5065876   0.02008206  0.034650691       -1e+20 
   27100    1.1229738   -6.7662617    6.5206943  0.020051335  0.034655183            1 
   27200    1.1992151    -6.796289    6.4817127  0.019858188  0.034650666            1 
   27300    1.1565876   -6.7761936    6.4496754  0.019687654  0.034640463            1 
   27400    1.0793662    -6.747959    6.5310739  0.019863363  0.034617356       -1e+20 
   27500    1.1392691   -6.7482552    6.5763703  0.019928394  0.034592674            1 
   27600    1.1859969   -6.7240173     6.640284  0.020049166  0.034577587            3 
   27700    1.1599329   -6.7940332    6.6055708  0.019872355  0.034559415            3 
   27800     1.178396   -6.8702181    6.6590846  0.019961284  0.034537706            2 
   27900     1.079956   -6.8436612    6.7001404  0.020012366  0.034509099            1 
   28000    1.1492997   -6.8519458    6.7213577   0.02000404   0.03447795            4 
   28100    1.1606719   -6.7827377    6.7223944  0.019935926  0.034450822            2 
   28200    1.0920687   -6.7569106    6.7388947  0.019913991  0.034413326       -1e+20 
   28300    1.0883226   -6.7979376    6.7988009  0.020020026  0.034378803            1 
   28400    1.1246108   -6.8308379      6.83999  0.020070393  0.034348122            1 
   28500    1.1330997   -6.7911246    6.8224662  0.019948731  0.034313838            1 
   28600    1.1127636   -6.7739373    6.7829999  0.019763985  0.034267807            1 
   28700    1.1540631   -6.7338206    6.8325593  0.019839022  0.034218575            1 
   28800    1.1348006   -6.8207781      6.86625  0.019867621  0.034171512            1 
   28900    1.0947089   -6.8158336    6.9307748  0.019984933  0.034120753       -1e+20 
   29000    1.1323043   -6.7952288    6.9678198   0.02002247  0.034073618       -1e+20 
   29100    1.1457854   -6.7806364     6.989497  0.020015741  0.034030141            3 
   29200    1.1315688   -6.7935861     6.993048  0.019957328  0.033989219            1 
   29300    1.1237114   -6.8066893    7.0903397  0.020165926  0.033953264       -1e+20 
   29400    1.1449507   -6.8224187     7.209975  0.020436437  0.033924775       -1e+20 
   29500    1.0825831   -6.7973898    7.2155351  0.020382867  0.033896536            1 
   29600    1.1221631   -6.8358528    7.1789351  0.020210966   0.03386057       -1e+20 
   29700     1.114804   -6.7792562    7.1691352  0.020115418  0.033819077            1 
   29800    1.1313509   -6.7649975     7.268432  0.020325592  0.033782605            3 
   29900    1.0618931   -6.7681746    7.2946452  0.020330672   0.03374657            1 
   30000    1.1237479   -6.8476876    7.3539377  0.020427604   0.03371126            1 
   30100    1.1163383   -6.7836715    7.3859163  0.020448273  0.033678694            3 
   30200    1.0794835    -6.850584    7.4294949  0.020500814  0.033646711       -1e+20 
   30300    1.0860566    -6.750385    7.4496884  0.020488692  0.033614124            1 
   30400    1.1146031   -6.7397253     7.456716  0.020440559  0.033580451            2 
   30500    1.0789213   -6.7702456    7.4209808  0.020275903  0.033545386            2 
   30600    1.0856496   -6.8534186    7.4643177  0.020327662  0.033502921            2 
   30700    1.0677139   -6.7431787    7.5648683  0.020534387  0.033462722       -1e+20 
   30800     1.086817    -6.782247    7.5941981  0.020547072  0.033422037       -1e+20 
   30900    1.0546767   -6.7756236    7.5699322  0.020415135    0.0333781            3 
   31000    1.1181559   -6.8766618    7.5972415  0.020422692  0.033332879            2 
   31100    1.1764014   -6.8964317    7.5686719  0.020280471  0.033286574            2 
   31200    1.0660101   -6.9088187    7.6165502   0.02034335  0.033239126            2 
   31300    1.0767889   -6.9123795     7.652745   0.02037472   0.03318868       -1e+20 
   31400    1.0978911   -6.8138593     7.692709  0.020415894  0.033141825            2 
   31500    1.1442381   -6.8112499    7.7403257  0.020477052   0.03309805            1 
   31600     1.059121   -6.8294168    7.7634813  0.020473315  0.033054667            1 
   31700    1.0653493   -6.8698404    7.8162431  0.020547432  0.033008752            1 
   31800    1.1207701   -6.8691074    7.8466065  0.020562386  0.032964837            1 
   31900    1.1162876   -6.8068213    7.8668151  0.020550718  0.032921942            2 
   32000    1.0695063   -6.8708131     7.857918  0.020463328  0.032872742            1 
   32100    1.0703421   -6.7808525     7.926512  0.020577653  0.032825662            1 
   32200    1.1076486   -6.7925898    7.9836681  0.020661667  0.032784502            1 
   32300     1.099882   -6.8419341    8.0325719  0.020723869  0.032749156            1 
   32400    1.1467178    -6.804012    8.0682247  0.020751606  0.032715507            1 
   32500    1.0669284   -6.8039915    8.0906735  0.020745316  0.032680283            2 
   32600    1.1179965    -6.884032    8.1300163   0.02078225  0.032644076            1 
   32700     1.047181   -6.9043341    8.1180895  0.020688301  0.032603649            1 
   32800    1.1041818   -6.8973948    8.1918613  0.020812655  0.032561836            4 
   32900    1.0719969   -6.8273288    8.2619415  0.020926903  0.032525306            1 
   33000    1.1282385   -6.8524901    8.2264587  0.020773885  0.032488637            2 
   33100    1.0487975   -6.8656249    8.2167331  0.020686639  0.032446561            2 
   33200    1.0820375   -6.8112614    8.2634811  0.020741669  0.032407345            1 
   33300    1.1246594   -6.8398922    8.3279189  0.020840637  0.032375263            1 
   33400    1.0434492   -6.8476506    8.4040068  0.020968081  0.032341245            2 
   33500     1.095209   -6.8846196    8.4713929  0.021073116  0.032311847            1 
   33600    1.0658219   -6.9112916    8.6031347  0.021337139  0.032287654            1 
   33700    1.0666373   -6.8656602    8.5926793   0.02124797  0.032262886            3 
   33800    1.1399785   -6.9229877     8.588647  0.021175165  0.032239656            2 
   33900    1.0979662   -6.8929728     8.688477  0.021358104  0.032221999            3 
   34000    1.1394133   -6.8949963    8.7404888  0.021422766  0.032208111            2 
   34100    1.0894029   -6.9223661    8.8060232  0.021520096  0.032192846            1 
   34200    1.0558252   -6.9192275    8.8758307  0.021627268  0.032179117       -1e+20 
   34300    1.0611416    -6.819017    8.9746038  0.021804188  0.032169251            1 
   34400    1.0985058   -6.8695154    8.9748401  0.021741376  0.032162465            2 
   34500    1.0760805   -6.8314166    9.0322183  0.021816952  0.032156877            1 
   34600    1.1091047   -6.9034516    9.0644811  0.021831602  0.032147514            1 
   34700    1.0557418   -6.9036344    9.1122659  0.021883443  0.032140357       -1e+20 
   34800    1.0910287   -6.9391492    9.0724715  0.021725267  0.032129358            1 
   34900    1.1214173   -6.9410828    9.1231461  0.021784016  0.032118527            2 
   35000    1.0679024   -6.9799869    9.1372527  0.021755363  0.032108997            1 
   35100    1.0692963   -6.9138191    9.1665867  0.021763026  0.032097406       -1e+20 
   35200    1.0907535    -6.909803    9.2278148  0.021846152  0.032087824            1 
   35300    1.0632095   -6.9728569    9.2328413  0.021796131  0.032074321            1 
   35400    1.0709829   -6.9573548    9.2291466  0.021725863  0.032056519            1 
   35500    1.0567092   -6.8539841    9.3149734  0.021866134  0.032041818            2 
   35600    1.1387096   -6.8680978    9.4060081  0.022017809  0.032031668            2 
   35700    1.0954702   -6.9371688    9.4519253  0.022063317  0.032022634            2 
   35800    1.0897962   -6.8692531    9.4928372  0.022096921   0.03201623            1 
   35900     1.052314   -6.9326333    9.5522316  0.022173239  0.032010971            2 
   36000     1.025918   -6.9697696    9.5535193  0.022114628   0.03200135            3 
   36100    1.0757434   -6.9320639    9.6543271  0.022286073  0.031991813            1 
   36200    1.0924985    -6.964963    9.6172338   0.02213912   0.03198562            1 
   36300    1.1040054   -6.9875252    9.5913492  0.022018708  0.031979487            1 
   36400    1.0782369   -6.9465285    9.6382194   0.02206552  0.031970441            2 
   36500    1.0967403   -6.9639719    9.7034942  0.022154096  0.031961093            4 
   36600    1.0808809   -6.8531883    9.7518183  0.022203593  0.031952019            1 
   36700    1.0593621   -6.9408747    9.7312413   0.02209637  0.031939291       -1e+20 
   36800    1.0626112   -6.9822184    9.7374047  0.022050282  0.031921346            1 
   36900    1.0318096     -6.91999    9.7554388  0.022031253  0.031902185            1 
   37000    1.0949744    -6.918381    9.7992991  0.022070493  0.031884766            3 
   37100    1.0733922    -6.893495    9.8275276   0.02207441  0.031868813            1 
   37200    1.0596377   -6.9334497    9.8849882   0.02214379   0.03185528            2 
   37300     1.053028   -6.9289288    9.9377585   0.02220232  0.031840525            1 
   37400    1.0398828   -6.9717758    9.9401205  0.022148218  0.031825196            1 
   37500    1.0836292   -6.9381786    9.8502384  0.021889418  0.031803705       -1e+20 
   37600    1.0917825   -7.0006001    9.8719066  0.021879225  0.031779602       -1e+20 
   37700    1.0042303   -6.9764963    9.9208096  0.021929287  0.031752874       -1e+20 
   37800    1.0342369   -6.9358472    9.9668535  0.021972781   0.03172715            1 
   37900    1.0888974   -6.9181801    10.007522  0.022004226  0.031704259            1 
   38000    1.0568193   -6.9734902     10.00096  0.021931931  0.031681994            1 
   38100    1.0496715   -6.8903665    10.045718  0.021972262  0.031658195       -1e+20 
   38200    1.0940246   -6.9614938    10.108593  0.022051904  0.031637752            5 
   38300    1.0464013   -7.0096982    10.124991  0.022030006   0.03161393       -1e+20 
   38400    1.0670787   -7.0108342    10.154207   0.02203604  0.031588918            1 
   38500    1.0431089   -6.9292617    10.155331  0.021981236  0.031562307            2 
   38600    1.0830333   -6.9298047    10.182561  0.021983076  0.031537831            1 
   38700    1.0845556   -6.8743185    10.192737  0.021948184  0.031514353            1 
   38800    1.0178769   -6.8884034    10.161799  0.021825169  0.031487251            2 
   38900    1.0194495   -6.8979781    10.275091  0.022011762  0.031459743            2 
   39000    1.0567812   -6.8878869     10.32162  0.022054743  0.031434193            3 
   39100    1.0569239   -6.9548794    10.293084  0.021937518   0.03140805            1 
   39200    1.0500951   -6.9045849    10.267814  0.021827835  0.031379916            1 
   39300    1.0353799   -6.8781885    10.325252  0.021894088  0.031350624            4 
   39400    1.0485122   -6.8778119    10.342495  0.021874989   0.03132136            2 
   39500    1.0520927   -6.9839695    10.325833  0.021784459  0.031287191            3 
   39600    1.0286634   -6.9822258    10.354798    0.0217904   0.03125356            1 
   39700    1.1067229   -6.9533411    10.335034  0.021694026  0.031221095            3 
   39800    1.0838765   -6.9727303    10.386037  0.021746308  0.031189184            2 
   39900   0.98992724   -6.9695466    10.456984  0.021839983  0.031157106            1 
   40000    1.0159044   -6.9791158    10.512329  0.021900685  0.031124411            1 
   40100    1.0477215   -6.9849931    10.596082  0.022020121  0.031093826            1 
   40200     1.043369    -7.053707    10.524796   0.02181757  0.031062586            2 
   40300    1.0441852   -7.0831357    10.547596   0.02181058  0.031028467            2 
   40400    1.0617915   -6.9646789    10.610433  0.021886207  0.030998148            1 
   40500    1.0548576   -6.9962893    10.576824  0.021763012  0.030967457            1 
   40600    1.0525164   -7.0601175    10.600696  0.021758408  0.030934405            2 
   40700    1.0220625    -7.041363     10.69657  0.021901249  0.030901375            1 
   40800    1.1007746    -7.067534    10.737068  0.021930285  0.030870721            3 
   40900   0.99087228   -6.9836047    10.721243  0.021844424  0.030837722            2 
   41000    1.0643442   -7.0047159    10.728133  0.021805149  0.030806116            2 
   41100    1.0147068   -7.0206338    10.773641  0.021844364  0.030776818            1 
   41200     1.083867   -7.0009438    10.933773  0.022115236  0.030749908            1 
   41300     1.026795   -7.0081835    10.887695  0.021968714   0.03072118            2 
   41400    1.0365759    -7.013624    10.905194  0.021950872  0.030690262            3 
   41500    1.0523658   -7.0198628    10.904515  0.021896617  0.030661617            1 
   41600    1.0348016   -7.0697014    10.884203  0.021803291  0.030630627            5 
   41700   0.98864221   -7.0483156    10.934219  0.021850957  0.030596772            2 
   41800   0.96773582   -7.0415733    10.933127  0.021796505  0.030561325            1 
   41900   0.99959575   -6.9643968    11.009062  0.021895509  0.030527915            1 
   42000    1.0578027    -6.941311    11.005283  0.021835879  0.030497165       -1e+20 
   42100    1.0566179   -6.9852419    10.984658  0.021743187  0.030465959       -1e+20 
   42200   0.99249921   -6.9925921    11.018796  0.021759076  0.030433453            1 
   42300   0.99536843   -7.0405024    11.095198  0.021858153  0.030400146            2 
   42400    1.0221648   -7.0326325    11.114121   0.02184379  0.030369408            1 
   42500    1.0348531   -6.9872506    11.172497  0.021906856  0.030340039       -1e+20 
   42600    1.0062059   -6.9506518    11.286711  0.022078856   0.03031362            2 
   42700    1.0136014   -7.0563496    11.237101  0.021930329  0.030288258            2 
   42800    1.0305534   -7.0730727     11.20849  0.021823383  0.030258263            2 
   42900    1.0649583   -6.9867572    11.282437  0.021916155  0.030227235            1 
   43000     1.043895   -7.0404425    11.273059  0.021847013  0.030198089            1 
   43100   0.99343345   -7.0230278    11.245537   0.02174311  0.030166693            3 
   43200   0.99311134   -7.0232396    11.304865  0.021807223  0.030133522            2 
   43300    1.0261977   -6.9550116    11.398083  0.021936263   0.03010364            2 
   43400    1.0540294   -7.0814488    11.311586  0.021719634  0.030071742            1 
   43500    0.9934177   -7.0353439     11.29657  0.021640939  0.030037661            1 
   43600    1.0088422   -7.0338271    11.298071  0.021594173  0.030000301            2 
   43700    1.0066515   -7.0284562    11.350604  0.021644936  0.029962439            2 
   43800   0.96171385   -7.0077273    11.259162   0.02142154  0.029924366            1 
   43900    1.0498353   -7.0962784    11.234487  0.021325906  0.029884911            2 
   44000    1.0854191   -7.0449538    11.296368  0.021394636  0.029845453            1 
   44100    1.0151142   -7.0697895    11.392241  0.021527288  0.029806542            1 
   44200   0.96065967   -7.0745534    11.466673  0.021618916  0.029768697       -1e+20 
   44300   0.99719212   -7.0288709    11.473727  0.021583384  0.029732921       -1e+20 
   44400    1.0095999   -6.9920316    11.487243   0.02156014  0.029698575            1 
   44500    1.0288084   -7.0464435    11.492183  0.021520941  0.029662922            2 
   44600   0.99349717   -7.0863176    11.506206   0.02149889  0.029626283            1 
   44700   0.99681313   -7.1033004    11.616703  0.021656792  0.029591989            2 
   44800    1.0057254   -7.0103223    11.652605  0.021675232  0.029559925            2 
   44900    1.0139114   -7.0137798    11.667023  0.021653717  0.029528441            1 
   45000   0.97350253   -7.0488392    11.665325  0.021602454  0.029493896            3 
   45100   0.99709915   -7.0676224    11.634862  0.021498267  0.029458466            1 
   45200   0.97771803   -7.0261772    11.591305  0.021370399  0.029421168            1 
   45300    1.0381205   -7.0809819    11.628121  0.021390951  0.029383383            1 
   45400   0.99881088   -7.1001678    11.683595  0.021445658  0.029345325            2 
   45500   0.96680626   -7.0646216    11.774771  0.021565514  0.029308903       -1e+20 
   45600    1.0120359   -7.0143601    11.859661  0.021673356  0.029274753            1 
   45700    1.0123669   -6.9748439    11.799686  0.021516568  0.029242647            2 
   45800    1.0083766    -7.030815    11.880362  0.021616379   0.02921076            3 
   45900   0.95421177   -7.0423713    11.867004  0.021545032  0.029179477            1 
   46000   0.97662075   -7.0676725    11.892342  0.021544097  0.029146184            1 
   46100    1.0153258   -7.0714028    11.908473  0.021526524  0.029113459       -1e+20 
   46200   0.97328277   -7.0798481    11.893613  0.021453126  0.029078885            1 
   46300   0.99046831   -7.0294817    11.993329  0.021586266  0.029044336            1 
   46400    1.0078978   -7.0648348    11.960659  0.021481069  0.029011031            1 
   46500    1.0032659   -7.0234272    11.881434  0.021292891  0.028976458            1 
   46600    1.0092097   -7.1628746    11.931762  0.021337199  0.028939957            2 
   46700   0.92998759   -7.0488231    12.001649  0.021416219  0.028904324            1 
   46800   0.96908704   -7.0429933     12.05559  0.021466505  0.028869311            1 
   46900       1.0522   -7.0883053     12.09008  0.021482019   0.02883678            1 
   47000   0.98544033   -7.1305601    12.117846  0.021485542  0.028804391            1 
   47100   0.93114916   -7.1421002    12.120148  0.021443998  0.028769424            1 
   47200    1.0180346   -7.1558697    12.065324  0.021301773  0.028733115            1 
   47300    1.0387566    -7.107967     12.07474  0.021273325   0.02869831       -1e+20 
   47400   0.95358029   -7.0540197    12.121361  0.021310409  0.028664772       -1e+20 
   47500    0.9892274   -7.1224632    12.153187  0.021321381  0.028630415            1 
   47600    0.9801068   -7.0510446    12.265644  0.021473466  0.028597666            5 
   47700   0.94360597    -7.067494    12.286355  0.021464631  0.028565111            1 
   47800   0.97015718   -7.1047869    12.256326  0.021367375  0.028530069            1 
   47900   0.97877196    -7.099245    12.229808  0.021276632  0.028495551            3 
   48000    1.0308336   -7.0656181    12.330634   0.02140735   0.02846298            1 
   48100    1.0115745   -7.0875169    12.318605  0.021342004  0.028432124       -1e+20 
   48200    0.9920654   -7.1267806    12.372968  0.021391715  0.028400443            1 
   48300   0.94191917   -7.1264587    12.404207  0.021401323  0.028368839       -1e+20 
   48400   0.95003252   -7.1885517    12.374492  0.021305943  0.028334061            1 
   48500    1.0077549   -7.2023097    12.356858  0.021231715  0.028298245            1 
   48600   0.97754871   -7.1292245    12.437769  0.021326764  0.028264304            2 
   48700   0.96706072   -7.0578825    12.483773  0.021361691  0.028231571            2 
   48800   0.98634139    -7.047452    12.539908  0.021413778  0.028201475            1 
   48900   0.96176479   -7.0876699    12.484543  0.021275635  0.028171852            1 
   49000   0.95745477   -6.9966698     12.51219  0.021279234    0.0281405            2 
   49100    1.0033597   -7.0569144    12.521709  0.021252051  0.028109836            1 
   49200   0.90820051   -7.0480231    12.514596  0.021196809  0.028076418            1 
   49300   0.94622963   -7.0772834    12.542117  0.021200333  0.028042982            1 
   49400   0.93513952   -7.1496925    12.492523  0.021073756  0.028007792            1 
   49500   0.98293224   -7.1448806    12.528978  0.021092555  0.027971654            3 
   49600   0.97738799   -7.0907724    12.615997  0.021196232  0.027938108            1 
   49700   0.95886947   -7.0619741    12.669113  0.021242644  0.027905263            4 
   49800   0.96544566   -7.1148904    12.680925  0.021219754  0.027872982            2 
   49900    0.9439656     -7.16731    12.627321  0.021087709  0.027839351            1 
   50000   0.95187956   -7.2217922    12.524351  0.020873919  0.027802957            1 
   50100   0.95036739    -7.108929    12.635875  0.021017757  0.027766361            1 
   50200   0.99949263   -7.0857884    12.665031  0.021024288  0.027731897            1 
   50300   0.94581829   -7.0634241    12.614956  0.020899529  0.027696851            1 
   50400   0.97854314   -7.0809716    12.632256  0.020886667  0.027661121            1 
   50500   0.93669613   -7.1362212    12.743557  0.021028972  0.027626308            3 
   50600   0.92108168   -7.1859011     12.69891  0.020913884  0.027590001            1 
   50700   0.91059824   -7.2113646    12.689131   0.02085656  0.027552225            2 
   50800   0.95083547   -7.2068629    12.715484  0.020858733  0.027515206            2 
   50900   0.97320469    -7.144912    12.751745  0.020877119  0.027480485            1 
   51000    0.9792219   -7.1755413    12.812575  0.020935579   0.02744702            3 
   51100   0.95424093   -7.1992729    12.858167  0.020968961  0.027414369            1 
   51200   0.93963185   -7.1843857    12.934448  0.021052162  0.027381686            3 
   51300   0.95180608   -7.1341195    12.976722  0.021079796  0.027348572            2 
   51400   0.97442205   -7.1386079    12.991655  0.021062995  0.027316584            2 
   51500   0.94541858   -7.1589904    12.897017  0.020868959  0.027283806            3 
   51600   0.96443603   -7.1826128    12.846538  0.020746992  0.027248981            1 
   51700   0.98233056   -7.1669112    12.895448  0.020785699  0.027213726            3 
   51800   0.94428077   -7.2331477    12.977179  0.020877057  0.027179517            2 
   51900   0.93994851   -7.2103991    12.954236  0.020799993  0.027144488            2 
   52000   0.96730692   -7.2400034    12.953114  0.020758195  0.027108102            1 
   52100   0.92374157   -7.2410482    12.930457  0.020682113  0.027071156            2 
   52200   0.97889502   -7.2054297    13.024731  0.020792993  0.027035659            2 
   52300   0.94776975   -7.2216468    13.023093  0.020750626  0.027001312            3 
   52400   0.93175187   -7.2121522    13.020616  0.020707087  0.026965887            2 
   52500   0.96781145   -7.1933346    13.125624  0.020834324  0.026933202            5 
   52600   0.92111306   -7.1808151    13.204232  0.020919252  0.026901929            2 
   52700   0.91012614   -7.1189996    13.339146  0.021092894  0.026871348            3 
   52800    0.9190471   -7.1366068    13.364214  0.021092509  0.026841767            1 
   52900   0.94072142   -7.1795996    13.280293  0.020920436  0.026812819            1 
   53000   0.94969212   -7.1872161    13.300455  0.020912665  0.026784682            1 
   53100   0.96901127   -7.1978936    13.262969  0.020814453  0.026755246            2 
   53200   0.94307375   -7.2319981    13.274944  0.020794085  0.026724765            2 
   53300   0.97644828   -7.2699772    13.310491  0.020810649  0.026694366            2 
   53400   0.91412498   -7.2710383    13.314399  0.020777776  0.026662332            1 
   53500    0.9190214   -7.2210364    13.331883  0.020766173  0.026629441            2 
   53600   0.96408447   -7.1733086    13.359974  0.020771103   0.02659806            1 
   53700   0.93396856   -7.2282741    13.362118  0.020735751  0.026567126            1 
   53800   0.93882947   -7.1957769    13.454599  0.020840456  0.026536385            2 
   53900   0.89454668   -7.2069969    13.507005  0.020882815   0.02650818            1 
   54000   0.90435468   -7.1929827    13.466019  0.020780893   0.02647815            2 
   54100    0.9271952   -7.1296193     13.48774  0.020775939  0.026449161            2 
   54200   0.94164252    -7.174306    13.436499  0.020658824  0.026419823            5 
   54300   0.93993588   -7.1770459    13.467713  0.020668681  0.026390513            2 
   54400   0.96862078   -7.1713858    13.556162  0.020766179  0.026361804            1 
   54500   0.88657382   -7.1848497    13.628618  0.020838865  0.026333677            1 
   54600   0.92636121   -7.1762322    13.610338    0.0207728  0.026305104       -1e+20 
   54700   0.93809835    -7.250586    13.541941  0.020630623  0.026274865            2 
   54800   0.92910986   -7.1944236    13.521717  0.020562221  0.026244433            1 
   54900   0.98598453   -7.2653299    13.519647  0.020521626  0.026212967            1 
   55000   0.92096792   -7.2553021    13.479467  0.020423434  0.026180157            1 
   55100   0.94468951   -7.2043067    13.561181  0.020509952  0.026146952            1 
   55200     0.977518   -7.2188728    13.623196  0.020566418  0.026115619            2 
   55300   0.93846884   -7.2762674    13.575239   0.02045696  0.026083022            1 
   55400   0.90380657   -7.2296721    13.537352  0.020363044  0.026048738            1 
   55500   0.92732521   -7.1866526     13.59384  0.020411171  0.026015213            1 
   55600   0.93022619   -7.2284617    13.628744  0.020426775   0.02598262            1 
   55700   0.93226377   -7.2483035    13.539489  0.020256566  0.025948544            4 
   55800   0.94970829   -7.1961414    13.542747   0.02022513  0.025913564            1 
   55900   0.95081869   -7.2091076    13.614296  0.020295611  0.025880002            2 
   56000   0.94344551   -7.2752216      13.5635  0.020183779  0.025845929            1 
   56100   0.87020957   -7.2637464    13.592629  0.020191071   0.02581034            2 
   56200   0.90270343   -7.2710019    13.657107  0.020250751   0.02577567            2 
   56300   0.95320558   -7.2623793    13.716438  0.020302601  0.025742456            1 
   56400   0.91507024   -7.2104342     13.77489  0.020352969  0.025710528            1 
   56500    0.9007103   -7.2482535    13.659311  0.020146477  0.025677948            1 
   56600   0.90930808   -7.2414614     13.71907  0.020198867  0.025645047            3 
   56700   0.91105559   -7.2058728    13.772501  0.020241772  0.025612698            4 
   56800   0.90009429   -7.1804398    13.780976  0.020218568  0.025580407            1 
   56900   0.89481805   -7.2405071    13.882513  0.020331741  0.025549069            2 
   57000   0.92789725   -7.1998211    14.027753   0.02050841  0.025519764            2 
   57100   0.92151452   -7.2245204     14.01347  0.020451648   0.02549124            1 
   57200   0.92759772   -7.2131497    14.010642  0.020411774  0.025463716            1 
   57300   0.88847217   -7.2250133    13.960775  0.020303628  0.025435382            1 
   57400   0.88152506   -7.2114687    14.053625  0.020403055  0.025406855            4 
   57500   0.90783206   -7.2052161    14.183091  0.020555204  0.025380217            1 
   57600   0.90231644    -7.242871    14.191529  0.020531726  0.025354261            4 
   57700   0.89381131   -7.2457754    14.244993  0.020573358   0.02532911            4 
   57800   0.92144273   -7.1862934    14.268613  0.020571818   0.02530511            2 
   57900   0.91278416   -7.2001258     14.22742  0.020477001  0.025281194       -1e+20 
   58000   0.90301366   -7.2525059    14.203444  0.020407247  0.025256738            2 
   58100   0.87182439   -7.2835533    14.286511  0.020491266  0.025232627            1 
   58200   0.90298132   -7.2902488    14.354223  0.020553011  0.025208744            1 
   58300   0.90260598    -7.257534    14.342856  0.020501509  0.025184392           12 
   58400   0.87866704   -7.2944162    14.363633  0.020496051  0.025159646            3 
   58500    0.8897793   -7.2690151    14.354941  0.020448634  0.025134618            5 
   58600   0.90370942   -7.1940414     14.45913  0.020561903  0.025111173            2 
   58700   0.89560679   -7.2657559    14.445459  0.020507466  0.025088822            1 
   58800   0.89131131   -7.2813442    14.491137  0.020537326  0.025066167            1 
   58900   0.90169611   -7.2894471    14.584182    0.0206341  0.025043715            2 
   59000     0.937829   -7.2808503    14.605971  0.020629902  0.025021785            1 
   59100   0.87098131   -7.2944353    14.576261  0.020553103  0.024998206            2 
   59200   0.88166287   -7.2648659    14.509153   0.02042392  0.024973747            1 
   59300   0.88721136   -7.3476659    14.466191  0.020329104  0.024949095            2 
   59400   0.92274915   -7.3241661    14.471256  0.020301987  0.024924587            6 
   59500   0.89845367   -7.2843542    14.536659  0.020359466  0.024901278            1 
   59600   0.91433336   -7.2627937    14.579782    0.0203856  0.024878371            2 
   59700   0.88782175   -7.2569318    14.641741  0.020437941  0.024855235            2 
   59800   0.89267343   -7.3123717    14.682718  0.020460867  0.024831843       -1e+20 
   59900   0.88106614   -7.3837611      14.6115   0.02032763  0.024808033            4 
   60000   0.86589586   -7.3810573    14.649832  0.020346988  0.024783025            2 
   60100    0.8746795   -7.3194683    14.694503  0.020375073  0.024758566            1 
   60200   0.91142796   -7.2903961    14.671485  0.020309364  0.024735104            3 
   60300   0.87255194    -7.337615    14.660274   0.02026019  0.024711193            1 
   60400   0.91289414   -7.3284972    14.804246  0.020425284  0.024688567            1 
   60500   0.88131857   -7.2665112    14.836896  0.020436496  0.024667692            5 
   60600   0.86650655   -7.3397109    14.858479  0.020432452  0.024646665            1 
   60700   0.88021261   -7.3312747    14.872847  0.020418515   0.02462492            5 
   60800   0.87223851   -7.3097071    14.867291  0.020377318  0.024602877            2 
   60900   0.91599183   -7.3357177    14.836512  0.020301741  0.024580519            1 
   61000   0.85747852   -7.2682175    14.799069  0.020217308  0.024557232            3 
   61100   0.92714168   -7.3305443    14.931765  0.020365201  0.024534536            2 
   61200   0.88805344   -7.3319634     15.02177   0.02045448  0.024513023            2 
   61300   0.82682016   -7.3020562    15.108839  0.020539476   0.02449182            1 
   61400   0.85868399   -7.2677217    15.045949  0.020420668  0.024471216            2 
   61500   0.96655681   -7.3614696    14.948024  0.020254775  0.024449655            1 
   61600   0.86057942   -7.2947466    14.990115  0.020278835  0.024427968            1 
   61700   0.88126981   -7.3365069    15.009416  0.020272037  0.024406297            2 
   61800   0.89667816   -7.3393863    14.965732  0.020180329   0.02438355            3 
   61900    0.8056874   -7.3181414     14.93318  0.020103904  0.024359818            1 
   62000   0.88122727   -7.3336982     14.93201  0.020069906  0.024336175            1 
   62100   0.87723294   -7.3306963    14.982193  0.020104929  0.024312528            2 
   62200   0.86540951   -7.3327313    15.016247   0.02011823   0.02428984            2 
   62300   0.87788161   -7.3048058     15.12553  0.020232115  0.024266824            4 
   62400   0.85706735    -7.337893    15.139573  0.020218447  0.024243963            2 
   62500   0.87313465   -7.3821114    15.035747  0.020047663  0.024220041            2 
   62600   0.82546222   -7.3665766    14.970902  0.019929316  0.024195038            1 
   62700   0.91076643   -7.4051203    14.980429  0.019910193  0.024169872            1 
   62800   0.88722722   -7.3123439    14.973587  0.019869409  0.024145258            4 
   62900   0.84964851   -7.3605596    14.961763  0.019822155  0.024119588            2 
   63000    0.8555829   -7.3284519    15.038926  0.019892759  0.024094105            1 
   63100    0.8789197    -7.326076    15.080065  0.019915564  0.024069161            3 
   63200   0.86771105   -7.3539974    15.066079   0.01986561  0.024044461            2 
   63300   0.82575126   -7.3773623    15.064466  0.019832104  0.024019045            1 
   63400   0.88677089   -7.3809411    15.093805  0.019839386  0.023993789            5 
   63500   0.88897339   -7.4169605    15.149579  0.019881337  0.023969033            4 
   63600    0.8161339    -7.415833     15.15704  0.019859853  0.023944215            4 
   63700   0.86443779   -7.4145669     15.12778  0.019790398  0.023918587            3 
   63800   0.89419706   -7.3846376    15.102394   0.01972622  0.023893146            3 
   63900   0.85260749   -7.3292405    15.079143  0.019665028  0.023867571            3 
   64000    0.7880062   -7.3316739    15.076901  0.019631382  0.023841947            2 
   64100   0.84936809    -7.343395    15.188627  0.019746005  0.023816519            2 
   64200   0.89844365    -7.367297    15.251726  0.019797152  0.023792853            1 
   64300   0.81825061    -7.333805    15.261157  0.019778586  0.023768439            1 
   64400   0.84832747   -7.3104918    15.295372  0.019792148  0.023743488            2 
   64500   0.84811957   -7.3119942    15.266348  0.019723964  0.023719163            2 
   64600   0.86738403    -7.355725    15.247817  0.019669526  0.023694904       -1e+20 
   64700   0.84723507   -7.3684647    15.215996   0.01959814   0.02367012            3 
   64800   0.87067012   -7.3314493    15.305492  0.019682988  0.023645224            1 
   64900   0.83629512   -7.3595625     15.27127  0.019608719  0.023619723            1 
   65000   0.85144693    -7.369956    15.300388  0.019615882  0.023594775            2 
   65100   0.85209747   -7.2990917    15.358158    0.0196597  0.023570188            3 
   65200   0.86030133   -7.3622199    15.358312  0.019629744  0.023545939            1 
   65300   0.87595757   -7.3671526    15.412946  0.019669405  0.023521874            2 
   65400   0.83859189   -7.3148937    15.462451   0.01970241  0.023498286            1 
   65500   0.81788968   -7.3750791    15.447993  0.019653935  0.023474392            2 
   65600    0.8482265   -7.3934967    15.435717  0.019608381  0.023449436            3 
   65700   0.88664279   -7.3460609     15.48248  0.019637849  0.023425857            1 
   65800   0.86310188   -7.4217077    15.406624  0.019511935  0.023402415            1 
   65900   0.83096702   -7.4055883    15.375474  0.019442936  0.023377171            3 
   66000    0.8594824   -7.3553281    15.498712  0.019569081  0.023352604            1 
   66100   0.82004761   -7.3248101    15.505247  0.019547715  0.023328549            2 
   66200   0.86354811    -7.388817    15.506815   0.01952016  0.023304477            1 
   66300   0.84787794   -7.4081399    15.496022  0.019477152  0.023280193            2 
   66400   0.80003523   -7.4363264     15.44518  0.019384011  0.023254234            2 
   66500   0.81850855   -7.3769068    15.496175  0.019418765   0.02322816            2 
   66600   0.88686822   -7.4155697    15.445556  0.019326271  0.023202975            2 
   66700   0.83660828   -7.4057207    15.485939   0.01934775  0.023177545            5 
   66800   0.80104935   -7.3647201    15.545731  0.019393377  0.023152337            1 
   66900   0.82024124   -7.4065033    15.567365  0.019391337  0.023127672            1 
   67000    0.8526781    -7.468108    15.495484   0.01927299  0.023102781       -1e+20 
   67100   0.84619314   -7.4630801    15.515947  0.019269681  0.023077938            1 
   67200   0.82885724   -7.4678406    15.593251  0.019336869  0.023053313            2 
   67300   0.84363551   -7.4951137    15.616391  0.019336789  0.023028797            1 
   67400   0.84099242   -7.4368773    15.721797  0.019438424  0.023004873            2 
   67500   0.81984258   -7.4933431    15.685267  0.019364526  0.022981231            1 
   67600   0.84381344   -7.4765167    15.705643     0.019361  0.022957203            1 
   67700   0.84129233   -7.4739106    15.661192  0.019277686  0.022932973            2 
   67800   0.81284806   -7.5090874    15.660385   0.01924826  0.022907868            1 
   67900   0.81273717   -7.4701576    15.697771  0.019265796  0.022882413            2 
   68000   0.79153965    -7.492351    15.697965  0.019237702  0.022857041            3 
   68100   0.85714887   -7.5367231    15.672116  0.019177821  0.022832091            4 
   68200   0.85937071   -7.4706922      15.8058   0.01931305  0.022807972            2 
   68300   0.84997622    -7.441615    15.769772  0.019240815  0.022784752            1 
   68400   0.80973057   -7.4632362     15.69848  0.019125828  0.022760018            2 
   68500   0.84633059    -7.457935    15.631223  0.019016086  0.022734624            2 
   68600   0.81554142   -7.4349845    15.707547  0.019081083   0.02270938            2 
   68700   0.82614926   -7.5254213    15.700153  0.019044339  0.022683856            1 
   68800   0.81789728   -7.4324276    15.818026   0.01915943  0.022658846            4 
   68900   0.83435986   -7.4891079    15.762065   0.01906394  0.022634184            2 
   69000   0.82653957   -7.4720501     15.74171  0.019011727  0.022608714            1 
   69100    0.8231984   -7.5298927    15.801142  0.019055887  0.022583724            2 
   69200   0.80145908   -7.5403691    15.763597  0.018983137  0.022557613            1 
   69300    0.7789523   -7.5703544    15.754931  0.018945324  0.022530911            2 
   69400   0.82409929   -7.5341668    15.740329  0.018900491   0.02250469            2 
   69500   0.83101961   -7.4928395    15.715274  0.018843254  0.022478271            2 
   69600   0.82344955   -7.5089805    15.674919  0.018767863  0.022451992            2 
   69700   0.80687678   -7.5489887    15.679756  0.018746719   0.02242488            4 
   69800   0.84926286   -7.5292016    15.757518  0.018812701  0.022397919            2 
   69900   0.81901996   -7.4858703    15.817547  0.018857352  0.022371967            1 
   70000   0.82685358   -7.5494646    15.820506  0.018833936  0.022346066            2 
   70100    0.7710238   -7.5560458    15.759033  0.018733991  0.022319079            1 
   70200   0.82003193     -7.54678    15.721313  0.018662527  0.022291283            1 
   70300   0.83933227   -7.4685586    15.673331  0.018579103  0.022263775            1 
   70400   0.80825255   -7.4945317    15.687131  0.018569047  0.022236373            1 
   70500   0.84249297   -7.5605068     15.70028   0.01855825  0.022208592            2 
   70600   0.81789608   -7.5030139    15.779323  0.018625264  0.022181682            5 
   70700   0.82708975   -7.4857011    15.833933  0.018663288  0.022155316            2 
   70800   0.79865379    -7.478113    15.806943  0.018605159  0.022129055            5 
   70900   0.76107965   -7.5192572    15.800255  0.018571057  0.022101771            4 
   71000   0.77489528   -7.5004452    15.775061   0.01851533  0.022073814            3 
   71100   0.80243069   -7.5180781    15.827785  0.018551084  0.022046334            3 
   71200   0.80342522   -7.5125023    15.775295  0.018463594  0.022019122            4 
   71300   0.83886766   -7.5148829    15.802809  0.018469857  0.021992392            1 
   71400   0.83090816   -7.5234841    15.815295  0.018458561    0.0219659            2 
   71500   0.81028876   -7.5123143    15.796228  0.018410522  0.021938939            1 
   71600   0.77217055   -7.5380398    15.803542  0.018393321  0.021911389            5 
   71700   0.82212695   -7.5312399    15.841144  0.018411371   0.02188381            3 
   71800   0.79712528   -7.4702718    15.927018  0.018485397   0.02185723            7 
   71900   0.79530423   -7.4861918    15.971656  0.018511423  0.021831315            5 
   72000   0.80344208   -7.4956753     15.97298  0.018487246  0.021805527            1 
   72100   0.78287015    -7.544456    15.929951  0.018411871  0.021779323            2 
   72200   0.80166065   -7.5334801    15.966406  0.018428446  0.021752608            3 
   72300   0.78382791    -7.541877    16.053004  0.018502771  0.021725955            1 
   72400   0.78784112   -7.5364655    15.968081  0.018379467  0.021699859            1 
   72500   0.81765418    -7.552579    15.830188  0.018195618  0.021673047            2 
   72600   0.79512445    -7.539204    15.881053  0.018228941  0.021646016            1 
   72700   0.78324334   -7.5186124    15.972747  0.018308972  0.021619319            1 
   72800   0.78687609   -7.5471254    16.027332  0.018346304  0.021592962            1 
   72900   0.80254032     -7.54906    16.045634  0.018342059  0.021567084            1 
   73000   0.80284061    -7.491785    16.094555   0.01837278  0.021541952            1 
   73100   0.77746171   -7.5388206    16.077639  0.018328362  0.021516109            1 
   73200   0.78485137   -7.5591549    16.079137  0.018305028  0.021489842            1 
   73300   0.82180624   -7.5722079    16.000326  0.018190457  0.021463653            2 
   73400   0.79467814   -7.5905808    15.977655  0.018139935  0.021436634            2 
   73500   0.79677515   -7.5525265    16.057786  0.018206107  0.021409744            1 
   73600   0.78638709    -7.490287    16.072259  0.018197757  0.021383752            2 
   73700   0.78790029   -7.5254561    16.036473  0.018132602  0.021357868            1 
   73800   0.76194438    -7.567288    16.024621  0.018094649  0.021331427            1 
   73900   0.80474762   -7.5525725    16.065808  0.018116608  0.021305097       -1e+20 
   74000   0.80128664   -7.5293224     16.08935  0.018118637  0.021279154            1 
   74100   0.74948689   -7.5220333    16.080684   0.01808444  0.021253175            2 
   74200    0.7851826   -7.5524276     16.06065  0.018037567  0.021226342            2 
   74300   0.78775567   -7.4831296     16.09205  0.018048508  0.021199885            1 
   74400    0.7908755   -7.5242078    16.018198   0.01794153  0.021173438            1 
   74500   0.79528198    -7.510331    15.944492  0.017835002  0.021146331            1 
   74600   0.76734724   -7.5459476    15.970526  0.017840177  0.021119328            2 
   74700   0.76287711   -7.5769907    15.951068  0.017794587  0.021091593            1 
   74800   0.77321941   -7.5945027    15.953798  0.017773839  0.021063543            4 
   74900   0.76090381     -7.61671    16.029679  0.017834534  0.021035559            2 
   75000   0.79294446    -7.564744    16.031989  0.017813321  0.021008129            3 
   75100   0.78211005   -7.6126424    16.046662  0.017805883   0.02098047            4 
   75200    0.7562596   -7.5933548    16.074681  0.017813255  0.020952937            2 
   75300   0.80980973   -7.5816683    16.062885  0.017776544  0.020925727            2 
   75400   0.76882956   -7.5346139    16.021949  0.017707725  0.020898676            2 
   75500   0.77644458   -7.6263644    15.976674  0.017634297  0.020870667            2 
   75600   0.77983687   -7.5634052    15.946272   0.01757746  0.020842494            1 
   75700   0.80766608   -7.5861782    16.011682  0.017626246  0.020814673            1 
   75800   0.77853138   -7.6140188    16.073679  0.017671151  0.020787016            1 
   75900   0.73952128    -7.640903    16.032708  0.017602885  0.020759075            1 
   76000   0.74654866    -7.599529    16.074576  0.017625632  0.020730759            1 
   76100   0.77899967   -7.5725243    16.115844  0.017647661  0.020703449            1 
   76200   0.73723661   -7.5917593    16.032178  0.017533003  0.020675748            2 
   76300   0.75918048   -7.6382307    16.026863  0.017504219  0.020647324            1 
   76400   0.77575248   -7.5989303    16.083315  0.017542882  0.020619201            1 
   76500   0.76838832   -7.5744731    16.060365  0.017494951  0.020591761            2 
   76600   0.74567538   -7.5907054    16.060288  0.017472027  0.020563887            3 
   76700   0.77988248   -7.5891772    16.079439  0.017470055  0.020536001            2 
   76800   0.80234696   -7.5598282     16.11051  0.017481023  0.020508568            3 
   76900   0.75238074     -7.56313    16.057354  0.017400687  0.020480868            5 
   77000   0.75064599   -7.5934255    15.974055  0.017287938    0.0204527            4 
   77100   0.74869985   -7.6146176     15.98535  0.017277724  0.020424147            2 
   77200    0.7828701   -7.5658348    15.995881   0.01726671  0.020395846            2 
   77300     0.756783    -7.607355    16.003732  0.017252837  0.020367239            2 
   77400   0.74157848   -7.6035121    16.013662  0.017241238  0.020338516            1 
   77500   0.78622205   -7.5642708    16.151158  0.017366837  0.020310414            2 
   77600   0.74208507   -7.5363711    16.162441  0.017356573  0.020283235            1 
   77700   0.77497933   -7.5736274    16.115863   0.01728428   0.02025625       -1e+20 
   77800    0.7794508   -7.6038053    16.074494  0.017217753  0.020229042            1 
   77900   0.76388055   -7.6540691    16.079708  0.017201227  0.020201651            3 
   78000   0.73904551   -7.5569367    16.115896  0.017217837  0.020174255            4 
   78100   0.73796346   -7.5937278     16.09694  0.017175566  0.020146507            2 
   78200    0.7474746   -7.6109184    16.098359  0.017155114  0.020118849            1 
   78300   0.76816567   -7.5734901    16.160358  0.017199188  0.020091695            1 
   78400   0.75328591   -7.5890457    16.177837   0.01719583  0.020064946            1 
   78500    0.7226176   -7.6303633       16.137  0.017130573  0.020037384            2 
   78600   0.76312473   -7.6115752    16.159614  0.017132754   0.02001022            1 
   78700   0.79123853   -7.6454072    16.166317  0.017118082  0.019983514            6 
   78800   0.74825323   -7.6705223    16.144124  0.017072889  0.019956357            2 
   78900    0.7251538    -7.630354    16.225073  0.017136748  0.019929197            1 
   79000   0.74196457   -7.6366501    16.237523  0.017128188  0.019902453            2 
   79100   0.75453364    -7.629508    16.265285  0.017135783  0.019876058            4 
   79200   0.76081208   -7.6091898    16.250791  0.017098896  0.019850103            3 
   79300   0.73752742    -7.608882    16.175742  0.016998468  0.019823915            1 
   79400    0.7330169   -7.6518542    16.138284  0.016937745  0.019796997            1 
   79500   0.73711458   -7.6563951    16.134653  0.016912634  0.019769487            2 
   79600   0.74492774   -7.5933531    16.153927  0.016911565  0.019742261            2 
   79700    0.7142098   -7.6180261    16.194465  0.016932732  0.019714947            2 
   79800   0.72685653   -7.6484531    16.156592  0.016871963  0.019687002            1 
   79900   0.72219886   -7.6620683    16.209913  0.016906459  0.019659187            1 
   80000   0.76798235   -7.6549143    16.242602  0.016919377  0.019632136            1 
   80100   0.72074419   -7.6465693     16.16853  0.016821192  0.019604965            2 
   80200   0.78645044   -7.6605075    16.117613  0.016747312  0.019577378            1 
   80300   0.76556365   -7.6032435     16.05528  0.016661768   0.01954987            1 
   80400   0.73109575   -7.6339052    16.065194   0.01665132  0.019522028            1 
   80500   0.76754911   -7.6266625    16.067571  0.016633097  0.019494256            2 
   80600   0.72646249    -7.640253    16.075367   0.01662052  0.019466673            1 
   80700   0.76081058   -7.6223413    16.098391    0.0166237   0.01943887            1 
   80800   0.73316159   -7.6260468    16.096691  0.016601373  0.019410906            1 
   80900   0.71365302   -7.6659036     16.10233  0.016586661  0.019382568            1 
   81000   0.73819754    -7.607871    16.154098  0.016619442  0.019354248            1 
   81100   0.72689277   -7.6072871      16.1917  0.016637587  0.019326638            4 
   81200   0.72438333   -7.6579556    16.182314  0.016607465   0.01929901       -1e+20 
   81300   0.75603454   -7.6074437    16.151067  0.016555009  0.019271423            3 
   81400   0.73638721   -7.6157275    16.089836  0.016471986  0.019243693            6 
   81500    0.7034065   -7.5570673    16.132614  0.016495515  0.019216067            1 
   81600   0.79373342   -7.6470258    16.164222  0.016507579   0.01918889            2 
   81700    0.7276234   -7.6385462    16.161029  0.016484118  0.019161858            1 
   81800   0.71768475   -7.6596648    16.142245   0.01644483  0.019134158       -1e+20 
   81900     0.693778   -7.6561057    16.165648  0.016448563  0.019106086            1 
   82000   0.72447757   -7.6189528    16.176507   0.01643954   0.01907811            1 
   82100   0.73501615   -7.6193756    16.192126  0.016435369    0.0190509            1 
   82200   0.69133995    -7.650664    16.105923  0.016327984   0.01902323            3 
   82300   0.72999518   -7.6924957    16.095405  0.016297494   0.01899527            1 
   82400   0.76691681   -7.6998613    16.119843   0.01630243  0.018967553            3 
   82500   0.72263472   -7.6699479    16.138301  0.016301314  0.018940068            1 
   82600   0.69022301   -7.6785974    16.119569  0.016262681   0.01891208            1 
   82700   0.71848213   -7.6897759    16.200668  0.016324736  0.018884785            1 
   82800   0.72203365   -7.6680176    16.182663    0.0162869  0.018857692            4 
   82900    0.7215461   -7.6658508    16.170519  0.016255045  0.018830618            1 
   83000    0.7293382   -7.6563293    16.228856  0.016294032  0.018803799            2 
   83100   0.70076705   -7.5896151    16.280969  0.016326683  0.018777286            4 
   83200   0.71395638   -7.7010037    16.226803  0.016252807  0.018750544            4 
   83300    0.7025979   -7.6728535     16.24656  0.016253061  0.018723642            2 
   83400   0.72047045   -7.6434973     16.24016  0.016227178  0.018696954            4 
   83500    0.7352289   -7.6827192    16.239262  0.016206848  0.018670224            1 
   83600   0.70038391   -7.7015706    16.113134  0.016061736  0.018642872            1 
   83700   0.71428267   -7.6779816    16.143303  0.016072584  0.018615354            3 
   83800   0.73619291   -7.7022537    16.175485  0.016085406  0.018588139            2 
   83900   0.71390711   -7.7155747     16.12706  0.016018136  0.018560831            2 
   84000   0.71716068   -7.6794116    16.078702  0.015951094  0.018533315            2 
   84100   0.71966087    -7.667105    16.123198  0.015976217  0.018505978            2 
   84200   0.72039804   -7.6593672    16.115016  0.015949145  0.018478819            6 
   84300   0.74214828   -7.6749092    16.203572  0.016017765  0.018451875            1 
   84400   0.70694863   -7.7237449    16.199527  0.015994793   0.01842477            3 
   84500   0.67988222     -7.74319     16.15246  0.015929447  0.018397118            2 
   84600   0.70848815    -7.694793    16.123274  0.015881869  0.018369318            2 
   84700   0.69520763   -7.6788691     16.17162  0.015910685  0.018341842            1 
   84800   0.69481955   -7.7250136    16.171992  0.015892288  0.018314591            3 
   84900   0.72826001   -7.7585347    16.183108  0.015884479  0.018287459            1 
   85000    0.7237144     -7.71992    16.193836  0.015876309  0.018260682            3 
   85100   0.70630184   -7.7376943    16.074734  0.015741025   0.01823354            4 
   85200   0.68530383   -7.7808812    16.077358  0.015725115  0.018205811            6 
   85300   0.71448376   -7.7504084    16.178944  0.015805924  0.018178356            5 
   85400   0.71577815    -7.753147     16.17272  0.015781343   0.01815123            5 
   85500   0.65415501   -7.7403678    16.150706  0.015741429  0.018124078            4 
   85600   0.70301614   -7.7350215    16.198939  0.015769995   0.01809696            5 
   85700   0.68040208   -7.7348114    16.169471  0.015722939  0.018069818            4 
   85800   0.70957007   -7.7689516    16.099682  0.015636832  0.018042685            3 
   85900   0.68988118   -7.7544989    16.071954  0.015591729  0.018015192            2 
   86000   0.70116641   -7.7256531    16.110901  0.015611338  0.017988115            3 
   86100    0.7027132   -7.7536549    16.184932  0.015664858  0.017961414            1 
   86200   0.69168579   -7.7678588    16.235016  0.015695104  0.017934859            2 
   86300   0.70035161   -7.7372367    16.202893  0.015645899  0.017908369            1 
   86400    0.6668623   -7.7382192    16.085206  0.015514281  0.017881432       -1e+20 
   86500   0.68572621    -7.740313     16.12884  0.015538381  0.017854513            6 
   86600   0.69512926   -7.7679423    16.210068  0.015598603  0.017828144            1 
   86700   0.68520822   -7.8245749    16.120234  0.015494265  0.017801586            2 
   86800   0.67294402   -7.8546303     16.10664  0.015463364  0.017774531            3 
   86900   0.69561858    -7.792758    16.161075  0.015497771  0.017747785            5 
   87000   0.67913024   -7.7719733    16.246793  0.015562063  0.017721519            1 
   87100   0.67119597   -7.7530344    16.330363  0.015624151  0.017695634            1 
   87200   0.70637727   -7.7297899    16.350601  0.015625574  0.017670114            1 
   87300   0.68294444   -7.7712024    16.281644  0.015541852  0.017644532            1 
   87400   0.64500576   -7.7547358    16.321678  0.015562241  0.017618949            1 
   87500   0.69122363   -7.7464489    16.376409   0.01559658  0.017593794            1 
   87600   0.68912021   -7.7802574    16.288191  0.015494855  0.017568501            1 
   87700   0.69016961   -7.7708611    16.240736  0.015432094  0.017542759            3 
   87800   0.70483863   -7.7726295    16.276359  0.015448329  0.017517411            2 
   87900   0.65983758   -7.7883691    16.179808  0.015339219   0.01749133            2 
   88000   0.67018256   -7.7580381    16.241855  0.015380545   0.01746529            1 
   88100   0.68816429    -7.771897    16.258813  0.015379127  0.017439567            4 
   88200   0.65659662   -7.7735572    16.235331  0.015339504  0.017413747            4 
   88300   0.66098018   -7.7695215    16.241235  0.015327704  0.017387878            2 
   88400   0.68714915   -7.7395497    16.284544  0.015351191  0.017362149            2 
   88500   0.70016883   -7.7933286    16.235824   0.01528797  0.017336516            1 
   88600   0.67324739   -7.7886511    16.186728  0.015224538  0.017310592            3 
   88700   0.64051295   -7.7690413    16.216812  0.015235636  0.017284363            2 
   88800   0.67215727   -7.7782959    16.216843  0.015218509  0.017258254            3 
   88900   0.66966452   -7.8339303    16.254207  0.015236414  0.017232101            4 
   89000   0.64826401   -7.8446631     16.24271   0.01520853  0.017205966            2 
   89100   0.68264028    -7.804744    16.236926  0.015186051  0.017179916            3 
   89200   0.66761555   -7.8048541    16.237759  0.015169805  0.017153936            7 
   89300   0.65407082   -7.8221935     16.19227  0.015110368     0.017128            5 
   89400   0.67931433   -7.7767239     16.20573  0.015106012  0.017102181            5 
   89500   0.68512617   -7.7374643    16.215549  0.015098277  0.017076907            1 
   89600   0.65174673   -7.7846731     16.17131  0.015040281  0.017051369            4 
   89700   0.63991985   -7.7898976    16.241315  0.015088549   0.01702556            3 
   89800    0.6595169   -7.7804138    16.275385  0.015103364  0.017000163            1 
   89900   0.67167358   -7.8118896    16.229884  0.015044387  0.016974834            2 
   90000   0.66288867   -7.8126228    16.210124  0.015009374  0.016949495            4 
   90100   0.65575535   -7.7734538    16.185847  0.014970262  0.016924257            1 
   90200   0.70675805   -7.7707355    16.211724  0.014977572  0.016898918            3 
   90300   0.67184216   -7.7623608     16.25469  0.015000637  0.016873886            2 
   90400   0.66018894   -7.8084257    16.209385   0.01494228  0.016848727            2 
   90500   0.63389314   -7.7716845    16.195941   0.01491339  0.016823444            2 
   90600   0.66728538   -7.7539004    16.268316  0.014963499  0.016798462            2 
   90700    0.6897779   -7.8175043    16.176614  0.014862747  0.016773318            2 
   90800   0.65608426   -7.8195982    16.197675  0.014865708  0.016747943            4 
   90900   0.68307551   -7.8254081    16.279366  0.014924245  0.016722916            4 
   91000   0.64605073    -7.788185    16.307155  0.014933292  0.016698174            6 
   91100   0.64428806   -7.8630268    16.253189  0.014867535  0.016673219            4 
   91200   0.65719034   -7.8146289    16.246573  0.014845187  0.016648226            5 
   91300   0.68535282   -7.8568434    16.234985  0.014818351  0.016623096            4 
   91400   0.63790459   -7.7856393    16.286799  0.014849379  0.016598001            5 
   91500   0.66694231   -7.8334598    16.306406  0.014851008  0.016573251            6 
   91600   0.62259355   -7.8365436    16.355227  0.014879209  0.016548612            4 
   91700   0.64053486    -7.807115    16.325779  0.014836222  0.016523997            2 
   91800   0.70587996   -7.8198672    16.288677  0.014786381  0.016499647            1 
   91900   0.67265947   -7.7896757    16.222223  0.014710031  0.016475253            4 
   92000   0.65868936   -7.7974028    16.246986  0.014716473  0.016450908            2 
   92100   0.62203936   -7.8146434    16.235166  0.014689799    0.0164265            5 
   92200   0.64721233   -7.8164819    16.254051  0.014690935  0.016402146            4 
   92300   0.66563891   -7.7805105    16.303851  0.014719981  0.016378072            4 
   92400   0.63278743   -7.7861775    16.300436   0.01470097  0.016353976            2 
   92500   0.61562078   -7.8478103    16.321614  0.014704156  0.016329778            2 
   92600   0.62904827   -7.8134722     16.39218  0.014751782  0.016305813            3 
   92700    0.6643253   -7.8444898    16.402544  0.014745185  0.016282142            3 
   92800   0.62612351   -7.8303495    16.326316  0.014660844  0.016258277            5 
   92900    0.6288204   -7.8355633     16.23978  0.014567438  0.016234129            5 
   93000   0.67335865   -7.8606035     16.23483  0.014547339   0.01620989            6 
   93100   0.66692767   -7.8573137    16.225508  0.014523369  0.016185586            3 
   93200   0.62967861   -7.8145282    16.255911  0.014534971  0.016161268            1 
   93300   0.63675775   -7.8723337    16.262156   0.01452497  0.016137021            4 
   93400   0.62268157   -7.8909352    16.264903   0.01451187  0.016112717            5 
   93500   0.63387919   -7.8771571     16.33125  0.014555481  0.016088547            7 
   93600   0.63410466   -7.8558843        16.32  0.014529914  0.016064613            3 
   93700   0.65060624   -7.8949865    16.297952  0.014494799  0.016040574            5 
   93800   0.63578299   -7.8659383    16.285728  0.014468486  0.016016696            6 
   93900   0.64293946   -7.8658099    16.289234   0.01445619  0.015992872            4 
   94000   0.61364919   -7.8607956    16.241111  0.014398148  0.015969096            4 
   94100    0.6369911   -7.8465141    16.246765  0.014387855  0.015945135            4 
   94200   0.64353851   -7.8549344    16.263187  0.014387108  0.015921353            5 
   94300   0.62962842   -7.8921984    16.209453  0.014324367   0.01589735            7 
   94400   0.57184853   -7.8767416    16.186631  0.014289046  0.015873035            3 
   94500   0.62893553   -7.8929127    16.174204  0.014262966  0.015848711            8 
   94600   0.66332574   -7.8918335    16.228011  0.014295288   0.01582452            6 
   94700   0.64066654   -7.8674294    16.259452   0.01430786  0.015800571            8 
   94800    0.6322188   -7.9249531    16.212463  0.014251462   0.01577651            3 
   94900   0.60628519   -7.8994626    16.234398  0.014255706  0.015752363            5 
   95000    0.6242003   -7.8558105    16.266264  0.014268653  0.015728552            3 
   95100   0.60735192   -7.8937812    16.238973  0.014229735  0.015704753            3 
   95200    0.6234405   -7.8998394    16.250474  0.014224855  0.015680918            2 
   95300   0.60448293   -7.8571157      16.2671  0.014224466  0.015657418            6 
   95400   0.61259567   -7.8754919    16.262588  0.014205615  0.015633896            5 
   95500   0.64581232   -7.8719734    16.261779  0.014190034  0.015610461            5 
   95600   0.61075607   -7.8383555    16.306182  0.014213897  0.015587329            6 
   95700   0.60997704   -7.8733075    16.244703  0.014145509  0.015564201            2 
   95800   0.61883996   -7.9006445    16.245889  0.014131775  0.015540954            2 
   95900   0.64326134   -7.8716559    16.218902  0.014093589  0.015517561            4 
   96000   0.59903698   -7.8726305    16.197607  0.014060423  0.015494084            3 
   96100   0.62776072   -7.8816826    16.218107  0.014063568   0.01547063            7 
   96200   0.62970338   -7.8697998    16.282254  0.014104516  0.015447549            9 
   96300   0.60353846   -7.8744342    16.275909   0.01408438   0.01542448            5 
   96400   0.61525469    -7.905405    16.253024  0.014049986  0.015401328            5 
   96500   0.62283266    -7.896505    16.251922  0.014034475  0.015378301            6 
   96600   0.63022082   -7.8653518    16.234184  0.014004644  0.015355229            7 
   96700   0.62763629   -7.9098066    16.263936  0.014015802  0.015332285            7 
   96800   0.59440444   -7.9049681    16.238085  0.013979068  0.015309206            8 
   96900   0.63770746   -7.9137022    16.248274  0.013973404  0.015286218            5 
   97000   0.63428055   -7.8728959    16.257986  0.013967341  0.015263407            6 
   97100   0.59908138   -7.9106486    16.291809  0.013981985  0.015240801           12 
   97200   0.59944348   -7.9088586    16.335952  0.014005446  0.015218428           17 
   97300   0.59995458    -7.893714    16.346659  0.014000221  0.015195907            6 
   97400   0.58720395   -7.9323425     16.31153  0.013955793  0.015173166            3 
   97500   0.59933727   -7.8967514    16.346664  0.013971507  0.015150539            4 
   97600   0.58508297   -7.8712408    16.315749  0.013930797  0.015128183            6 
   97700   0.62982145   -7.9465862     16.26624  0.013874309  0.015105734           15 
   97800   0.59210784   -7.9277927    16.256758  0.013852043  0.015083242            5 
   97900   0.61382691   -7.8988587     16.30614  0.013879929  0.015061039            5 
   98000   0.61300602   -7.9117157    16.324806  0.013881638   0.01503917            3 
   98100   0.59199513   -7.9207972     16.26152  0.013813727  0.015016905            7 
   98200   0.60429483   -7.8883309    16.359413  0.013882733  0.014994765            6 
   98300   0.60569557   -7.9005598    16.327411  0.013841481  0.014972714            8 
   98400   0.58540874   -7.9477331     16.31473  0.013816675    0.0149506            5 
   98500   0.60357752   -7.9103644    16.281503  0.013774537  0.014928685            2 
   98600   0.58788556    -7.868445    16.319572  0.013792741  0.014906753            8 
   98700   0.62741379   -7.8651267    16.337689  0.013794064  0.014885184           14 
   98800   0.59369057   -7.8932615    16.297109  0.013745875  0.014863638            6 
   98900   0.60823914   -7.9595394    16.330704  0.013760283  0.014841801            8 
   99000   0.61315183   -7.9254142    16.310974  0.013729776   0.01481973           10 
   99100   0.59657748   -7.9183222    16.390214  0.013782554  0.014797955           13 
   99200   0.55789994    -7.916735     16.36563  0.013748009  0.014776335            2 
   99300   0.60616277   -7.9417614    16.305045  0.013683321  0.014754681            2 
   99400   0.60795986   -7.8717383    16.326846  0.013687832  0.014732975           11 
   99500    0.5952897   -7.8655167     16.34685  0.013690829  0.014711502            5 
   99600   0.61304112   -7.9332736    16.295573  0.013634181  0.014690114           13 
   99700   0.57619217   -7.9049592    16.266445  0.013596159  0.014668365           11 
   99800   0.61129901   -7.9360059    16.357457  0.013658531  0.014646772           12 
   99900   0.57561213   -7.9517307    16.331067  0.013622845  0.014625197            7 
  100000   0.61031358   -7.9520877    16.318951  0.013599126  0.014603792            6 
  100100   0.59679755   -7.9108536    16.362719  0.013621977  0.014582482            3 
  100200   0.59046142   -7.9105666    16.355847  0.013602667  0.014561322            8 
  100300   0.56897352    -7.920074    16.377918  0.013607442   0.01454009            9 
  100400    0.5667502   -7.9337039    16.357323  0.013576795  0.014518869            8 
  100500   0.57457727    -7.916045    16.369215  0.013573146  0.014497837            6 
  100600   0.61660188   -7.9342913    16.412121  0.013595196  0.014477065            5 
  100700   0.59106179   -7.9010173    16.366269  0.013543751  0.014456407            6 
  100800   0.58480968    -7.933543     16.29901   0.01347471  0.014435338           11 
  100900    0.5941687   -7.9400134    16.291027  0.013454763  0.014414077            7 
  101000   0.58463454   -7.9516732    16.315072  0.013461281  0.014392901            7 
  101100   0.56274361   -7.9487311    16.327286  0.013458033  0.014371646            7 
  101200   0.55298719   -7.9238114    16.346565   0.01346061  0.014350541            9 
  101300   0.59982953   -7.9653933    16.373538  0.013469511  0.014329551           10 
  101400   0.56238495   -7.9463787    16.393098  0.013472303  0.014308746            7 
  101500   0.60101404   -7.9318222    16.354733  0.013427531  0.014287959            4 
  101600   0.60408282   -7.9432458    16.350008  0.013410439  0.014267341            7 
  101700   0.58038454   -7.9200268      16.3356  0.013385447  0.014246813           11 
  101800   0.56251711     -7.92151    16.293649  0.013337957  0.014226057            4 
  101900   0.52492296   -7.9098997    16.333164  0.013357183  0.014205078            7 
  102000   0.59705899   -7.9524309    16.346613  0.013355076  0.014184328            8 
  102100   0.55324599   -7.9537237    16.339095  0.013335859   0.01416381            6 
  102200   0.57709554   -7.9550627    16.345093  0.013327701  0.014143294            4 
  102300   0.57493264   -7.9617473    16.333086  0.013304892  0.014122674            4 
  102400   0.56381143   -7.9987597     16.33948  0.013297103  0.014101642            1 
  102500   0.57513712   -7.9985678    16.341989  0.013286169  0.014080732            5 
  102600   0.53410383    -8.004963     16.31987  0.013255255  0.014060016            7 
  102700   0.55737835   -7.9798549     16.36353  0.013277775  0.014039437           12 
  102800   0.57164645   -7.9878157    16.309704  0.013221225   0.01401884            1 
  102900   0.60624272   -7.9993509    16.300602  0.013201006  0.013998222            4 
  103000   0.58629107   -8.0035968    16.293414  0.013182374  0.013977553            9 
  103100   0.55189305   -8.0029168    16.303854  0.013178026  0.013956802           10 
  103200   0.55297539   -7.9786354    16.366046  0.013215476  0.013936213            7 
  103300   0.58195194   -7.9821985    16.394449  0.013225596  0.013915945            6 
  103400   0.55963394   -7.9776438    16.369735  0.013192888  0.013895685            4 
  103500    0.5674526   -7.9888857    16.321088  0.013140972  0.013875562            7 
  103600    0.5572379   -8.0047997     16.28824  0.013101866  0.013855341            8 
  103700   0.59016222   -7.9894077    16.283604  0.013085506  0.013835052            9 
  103800   0.58657433   -8.0431486    16.308979  0.013093272    0.0138147            6 
  103900   0.56544083    -8.023892    16.354937   0.01311753  0.013794461            9 
  104000   0.53574338   -7.9898106     16.39472  0.013136794  0.013774323           10 
  104100    0.5616655   -7.9704873    16.375474  0.013108769  0.013754127            9 
  104200   0.55839133   -7.9632374     16.34349  0.013070609  0.013734006            6 
  104300    0.5610688   -7.9961642    16.383783  0.013090271  0.013714112            6 
  104400   0.55076976   -8.0158915    16.359559  0.013058396  0.013694334            6 
  104500    0.5845621   -7.9949367    16.358729  0.013045238  0.013674706            8 
  104600   0.56710134   -7.9945784    16.373338  0.013044406  0.013655069            7 
  104700   0.57631125   -8.0429948    16.288476  0.012964403  0.013635246            3 
  104800   0.53145253   -8.0185929    16.300576  0.012961654  0.013615139            6 
  104900   0.53773895   -8.0114333    16.366673  0.013001805  0.013595274            4 
  105000   0.54395768   -7.9844055    16.366474  0.012989265   0.01357555            5 
  105100    0.5557758   -8.0035844    16.378864   0.01298673  0.013555968            5 
  105200   0.54216178   -8.0451299    16.361862  0.012960917   0.01353645            3 
  105300   0.54516475   -8.0254971    16.378145  0.012961495  0.013516871            4 
  105400   0.55473711   -8.0258569    16.376743  0.012948089  0.013497371            7 
  105500   0.55794152   -7.9987405      16.3651  0.012926619  0.013477825            5 
  105600   0.56385322   -8.0171648    16.294985  0.012859047  0.013458383            3 
  105700   0.56490454    -8.049414    16.274556  0.012830776   0.01343877            5 
  105800   0.55543062   -7.9930163    16.308619  0.012845478  0.013419184            7 
  105900   0.56442333    -8.023571    16.328384  0.012848902  0.013399742           11 
  106000   0.52445277   -8.0212195    16.298868  0.012813575  0.013380149            8 
  106100   0.53316765   -8.0298328    16.330883  0.012826644   0.01336054            8 
  106200   0.57124305   -8.0254592    16.362176  0.012839121  0.013341213            9 
  106300   0.51342342   -8.0079696    16.360218  0.012825508  0.013321856           10 
  106400   0.54672906   -8.0061297    16.350529  0.012805865  0.013302499            4 
  106500   0.54409968   -8.0279034    16.319619  0.012769655  0.013283275            3 
  106600   0.55381533   -8.0453555    16.290111  0.012734608  0.013263971            7 
  106700   0.50508094   -8.0402267    16.294951  0.012726454  0.013244769           11 
  106800   0.54095047   -8.0412991    16.341159  0.012750592  0.013225477           10 
  106900   0.54204764   -8.0341221    16.371561  0.012762364  0.013206428            7 
  107000   0.50667386   -8.0229926    16.339089  0.012725147  0.013187391           10 
  107100   0.54233473   -8.0261374    16.376118  0.012742077   0.01316845            7 
  107200   0.51155314   -8.0487198    16.336092  0.012699077  0.013149468           11 
  107300   0.52497538   -8.0207551    16.361804   0.01270721  0.013130483            3 
  107400   0.51237006   -8.0411442    16.394885  0.012721046  0.013111672            5 
  107500   0.53387902   -8.0656597    16.352789   0.01267658  0.013092927            8 
  107600   0.55541074   -8.0183482    16.395808  0.012698116   0.01307427            9 
  107700   0.53348449   -8.0316592    16.344908  0.012646942  0.013055625            9 
  107800   0.53412125   -8.0630829    16.314689   0.01261185  0.013036705            5 
  107900   0.51290124   -8.0255358    16.285921  0.012577943  0.013017735           10 
  108000   0.51985322   -8.0205759    16.302205  0.012578862  0.012998733            4 
  108100   0.55386343   -8.0481831    16.290077  0.012557876  0.012979799            4 
  108200   0.52544841    -8.069957    16.299028  0.012553164   0.01296092            6 
  108300   0.54931079   -8.0716262    16.268957  0.012518434  0.012942062            3 
  108400   0.52166619   -8.1008113    16.320758  0.012546708  0.012923243            4 
  108500   0.49548223   -8.0779582    16.307556  0.012525005  0.012904359            9 
  108600   0.53250201   -8.0917928    16.363267  0.012556221  0.012885612            5 
  108700   0.52189557   -8.1229677    16.298328  0.012494885  0.012866894            5 
  108800   0.52033962   -8.1222149    16.337833  0.012513659  0.012848125            1 
  108900   0.53349889   -8.1029766    16.390348  0.012542354  0.012829564            1 
  109000   0.53040835   -8.1014325    16.366381  0.012512524  0.012811053            3 
  109100   0.50265072   -8.0969012    16.359216  0.012495582  0.012792535            4 
  109200   0.52094567   -8.0555008    16.281404  0.012424759  0.012773919            5 
  109300   0.53912497   -8.0874227    16.253536  0.012392144  0.012755259            2 
  109400   0.52761164   -8.0822959    16.227809   0.01236122  0.012736615            5 
  109500   0.51874121    -8.043282    16.277045  0.012387401  0.012718126            2 
  109600   0.52373226   -8.0559297    16.285746  0.012382714  0.012699848            4 
  109700   0.51932184   -8.1017855    16.311451  0.012390953  0.012681375            6 
  109800   0.52302425   -8.0876735    16.324178  0.012389327  0.012663053            9 
  109900   0.52592236   -8.0614579    16.362686  0.012407254  0.012644864            3 
  110000     0.506479   -8.0883692    16.302477  0.012350361  0.012626712            8 
  110100   0.51312793   -8.1104917    16.310778  0.012345427  0.012608453           11 
  110200   0.52954335    -8.108522    16.311456  0.012334737  0.012590283            3 
  110300   0.50217726   -8.0921676    16.304348  0.012318184  0.012571997            4 
  110400   0.50039264   -8.1036799    16.339829  0.012333808  0.012553679           13 
  110500   0.48322323   -8.0798323    16.294955  0.012288805  0.012535338            3 
  110600   0.51146334     -8.08347    16.291542  0.012275122  0.012516964            7 
  110700    0.4819165   -8.0798695    16.264932  0.012244002  0.012498672            3 
  110800   0.53442647   -8.1484575    16.255909  0.012226165  0.012480487            3 
  110900    0.5043654   -8.1091023    16.281249  0.012234181  0.012462412            5 
  111000    0.5271986   -8.0919776    16.307927  0.012243188  0.012444559           14 
  111100   0.51422224   -8.1198904    16.295514  0.012222858  0.012426738           13 
  111200   0.50330852   -8.1190798    16.274491  0.012196111  0.012408817            8 
  111300     0.516637   -8.1241424    16.289266  0.012196216  0.012390913           14 
  111400   0.49141239   -8.1020703    16.241995  0.012149906  0.012372949            3 
  111500   0.51416586   -8.1319954    16.266688  0.012157465  0.012354966            6 
  111600   0.52946956   -8.1135027     16.31329   0.01218137  0.012337239            4 
  111700   0.51330301   -8.1188843    16.261302  0.012131678  0.012319468            4 
  111800   0.48244899    -8.123559    16.282941  0.012136956  0.012301544            3 
  111900   0.50982288   -8.1231112     16.30767  0.012144526  0.012283655            3 
  112000   0.51137783   -8.1449899    16.317545   0.01214103  0.012265855            3 
Loop time of 100.623 on 24 procs for 100000 steps with 864 atoms

Performance: 171729.409 tau/day, 993.804 timesteps/s
99.4% CPU use with 24 MPI tasks x no OpenMP threads

MPI task timing breakdown:
Section |  min time  |  avg time  |  max time  |%varavg| %total
---------------------------------------------------------------
Pair    | 5.9449     | 6.2048     | 6.4873     |   5.6 |  6.17
Neigh   | 0.62831    | 0.64362    | 0.66677    |   1.2 |  0.64
Comm    | 9.8612     | 10.606     | 11.191     |  11.4 | 10.54
Output  | 1.3706     | 1.3715     | 1.3811     |   0.2 |  1.36
Modify  | 79.2       | 80.363     | 81.624     |   8.2 | 79.86
Other   |            | 1.435      |            |       |  1.43

Nlocal:        36.0000 ave          41 max          31 min
Histogram: 2 1 4 2 3 0 3 3 1 5
Nghost:        1524.29 ave        1540 max        1508 min
Histogram: 1 2 3 1 6 4 1 1 1 4
Neighs:        5208.67 ave        6028 max        4349 min
Histogram: 1 2 3 3 5 0 4 1 2 3
FullNghs:      10417.6 ave       11913 max        8911 min
Histogram: 2 1 5 4 0 1 2 4 3 2

Total # of neighbors = 250022
Ave neighs/atom = 289.37731
Neighbor list builds = 5077
Dangerous builds = 0

#clear
#
#next RN
#
#jump SELF
Total wall time: 0:01:42
