
units lj                  # Use reduced LJ style units
atom_style atomic         # Uncharged point particles
atom_modify map hash      # Needed for indexing of clusters etc
                          # Used to be able to find where atoms are in relation to each other.

lattice fcc 1.0 spacing 1 1 1
Lattice spacing in x,y,z = 1.5874011 1.5874011 1.5874011
region box block 0 6 0 6 0 6 units lattice
create_box 2 box
Created orthogonal box = (0.0000000 0.0000000 0.0000000) to (9.5244063 9.5244063 9.5244063)
  2 by 2 by 3 MPI processor grid
create_atoms 1 box
Created 864 atoms
  using lattice units in orthogonal box = (0.0000000 0.0000000 0.0000000) to (9.5244063 9.5244063 9.5244063)
  create_atoms CPU = 0.001 seconds
set type 1 type/fraction 2 0.2 78393
Setting atom values ...
  181 settings made for type/fraction
mass 1 1.0
mass 2 1.0
pair_style lj/cut  3.5
pair_modify tail  yes
pair_coeff 1  1  1.0  1.0   # Intearaction between 1 and 1 set with epsilon = 1 and sigma = 1
pair_coeff 1  2  1.5  0.8
pair_coeff 2  2  0.5  0.88

write_data data.0
System init for write_data ...
Neighbor list info ...
  update every 1 steps, delay 10 steps, check yes
  max neighbors/atom: 2000, page size: 100000
  master list distance cutoff = 3.8
  ghost atom cutoff = 3.8
  binsize = 1.9, bins = 6 6 6
  1 neighbor lists, perpetual/occasional/extra = 1 0 0
  (1) pair lj/cut, perpetual
      attributes: half, newton on
      pair build: half/bin/atomonly/newton
      stencil: half/bin/3d
      bin: standard
WARNING: Not all mixed pair coeffs generated from mixing. Use write_data with 'pair ij' option to store all pair coeffs. (../write_data.cpp:312)


#############################
#   M E L T   S Y S T E M   #
#############################

velocity all create 2.4 4344764 mom yes dist gaussian # Assign velocities
                                                    # Temperature 2.4, random number seed, zero linear momentum
                                                                                # Gaussian distribution

timestep 0.002   # simulation timestep
thermo 100       # output thermodynamic data every 100 steps

# Define a fix  in this case with index 1 applied to all
# particles in the simulation. This fix is for simulations
# in the anisotropic NPT ensemble. Note that we use the MTK
# correction.
fix 1 all npt temp 2.4 2.4 0.1 iso 5.68 5.68 0.5 mtk yes tchain 5 pchain 5 # Use NPT ensemble
                                                                         # Set temperature and pressure and damping
                                                                         # Numbers of thermostats in chain and in barostat
run 10000          # run for 10000 steps
Per MPI rank memory allocation (min/avg/max) = 3.633 | 3.633 | 3.634 Mbytes
Step Temp E_pair E_mol TotEng Press Volume 
       0          2.4   -7.0327211            0   -3.4368878   -3.5977146          864 
     100    1.9056284   -5.8027623            0   -2.9476281     6.108972    842.39628 
     200    1.9753368    -5.389073            0   -2.4294972    5.7904706    889.31975 
     300    2.2295102    -5.240742            0   -1.9003473    5.3578351    921.78432 
     400    2.3587484   -5.0212369            0   -1.4872094     5.953202    938.33077 
     500    2.3523497   -4.7877038            0   -1.2632631    5.7652839    962.56224 
     600    2.4019412   -4.7456269            0   -1.1468851    5.7094688    971.63903 
     700    2.3175982   -4.8682766            0   -1.3959028    5.7096032    957.16627 
     800    2.4413902   -4.9389669            0   -1.2811201    5.5764084    951.57177 
     900    2.2852361   -4.9819655            0   -1.5580788    5.5883735      945.487 
    1000    2.3631921   -4.9713414            0    -1.430656    5.9658728    943.84311 
    1100    2.4182543   -4.9309738            0   -1.3077907    5.3749687    960.22795 
    1200    2.3727373   -4.7750578            0   -1.2200712     5.866176    965.26404 
    1300    2.3365963   -4.9533136            0   -1.4524757    6.1252536    945.77715 
    1400    2.3797627   -5.0110212            0   -1.4455087    5.4464203    949.61262 
    1500    2.4365972   -4.8546471            0   -1.2039815    5.2712705    971.10543 
    1600    2.3836912   -4.8153225            0    -1.243924    5.7186828    968.31559 
    1700    2.3427466    -4.897171            0   -1.3871183    6.0208557    950.31322 
    1800    2.3820469     -4.92027            0   -1.3513351     5.025094    971.05176 
    1900    2.5002318   -4.8040971            0   -1.0580902    5.7792585    967.84499 
    2000    2.3080003   -4.7927336            0   -1.3347401    5.7952613    970.76834 
    2100    2.5276436   -4.8409862            0   -1.0539091    5.9618834    960.72359 
    2200    2.3237749   -4.9071094            0   -1.4254814    5.0808818    968.63643 
    2300    2.4026018   -4.8342249            0   -1.2344933    5.7556414    962.09525 
    2400    2.4006847   -4.7946972            0    -1.197838    6.0264046    959.56954 
    2500    2.4162549   -4.8360437            0   -1.2158561    5.2307596    975.93796 
    2600     2.447166   -4.6965949            0   -1.0300944    5.6198567    983.71076 
    2700     2.333294   -4.7587841            0   -1.2628939    5.7709977    971.03724 
    2800    2.3037604   -4.8589287            0   -1.4072877    5.9863421    952.77146 
    2900    2.3909454   -4.8066196            0   -1.2243524    5.8870086    967.07639 
    3000    2.2737709   -4.8359489            0   -1.4292402    5.9444641    958.43324 
    3100    2.3003369   -4.8506353            0   -1.4041236    6.0014505     958.3535 
    3200    2.4443995   -4.8617268            0   -1.1993713    5.9646448    956.40397 
    3300    2.2792798   -4.8072602            0   -1.3922977    5.4031942    971.27173 
    3400    2.4846267   -4.7986643            0   -1.0760379      5.91047    969.24358 
    3500    2.3093995   -4.8136291            0   -1.3535392    5.6518844    968.76973 
    3600    2.3189609   -4.8581378            0   -1.3837224    6.1414205    950.04534 
    3700    2.2921663   -4.7064815            0   -1.2722115    6.0893032    965.51674 
    3800    2.4057047   -4.7381702            0   -1.1337897    5.7256825    975.68078 
    3900    2.4312789   -4.7892724            0   -1.1465749    5.9546732    963.98507 
    4000    2.3450119   -4.9132701            0   -1.3998234    5.3819827    967.63182 
    4100    2.5132426   -4.8737158            0   -1.1082153    5.7981702    961.40901 
    4200    2.3129185   -4.7861947            0   -1.3208325    5.4987306    973.83693 
    4300    2.4998229   -4.7888682            0   -1.0434739    5.7461004    970.25351 
    4400    2.3119767    -4.693628            0   -1.2296769     6.016701    966.79594 
    4500    2.4018303   -4.8911331            0   -1.2925575    5.8442648    956.83058 
    4600    2.4504928   -4.8320471            0   -1.1605623    5.5700453    967.60199 
    4700    2.4332074   -4.8754967            0     -1.22991    5.0541412    972.95817 
    4800    2.4377549    -4.949287            0   -1.2968868     5.844099    948.97591 
    4900    2.3058949   -4.9073195            0   -1.4524804     5.261439    964.37752 
    5000    2.4066587   -4.8190656            0   -1.2132558    6.1097123    959.28159 
    5100    2.4787427   -4.8793299            0   -1.1655192    5.0787954    976.28503 
    5200     2.385221   -4.8147955            0    -1.241105    5.8315004    963.11165 
    5300    2.3551099   -4.7154376            0   -1.1868614    6.0350875    969.81843 
    5400    2.4210341   -4.8549445            0   -1.2275965    5.1459117    978.88334 
    5500    2.4455094    -4.800965            0   -1.1369465    6.5616725    948.30672 
    5600    2.2892615   -4.8715973            0   -1.4416793    5.7638045    958.47331 
    5700    2.4156041   -4.8646922            0   -1.2454798    5.5187814    967.94893 
    5800    2.4284199   -4.8023678            0    -1.163954    5.5082411    972.02171 
    5900    2.4316552   -4.7055672            0    -1.062306    5.6021218    983.28367 
    6000    2.3524127   -4.7129284            0   -1.1883935    5.8873294    976.43524 
    6100    2.4001353   -4.8298744            0   -1.2338384    5.6189684    963.54162 
    6200    2.3654288   -4.7912928            0   -1.2472563     5.390185    976.50582 
    6300      2.45844   -4.6648848            0  -0.98149293    5.5711483    986.38636 
    6400    2.3448133   -4.7315661            0   -1.2184171    5.7560381    978.04131 
    6500     2.433749   -4.8299304            0   -1.1835321    6.0165411    958.35233 
    6600     2.367044   -4.9919012            0   -1.4454446    5.6214048    952.43935 
    6700    2.3579077   -4.8006253            0   -1.2678574    5.6762427    968.56281 
    6800    2.4825932   -4.8565152            0   -1.1369355    5.6827546    965.43746 
    6900    2.3176387   -4.8733064            0    -1.400872    5.4332751    965.41905 
    7000    2.4093838   -4.7845438            0    -1.174651    6.3234817    959.96172 
    7100    2.4054692   -4.7795047            0   -1.1754771    5.4357761    978.75629 
    7200    2.4071743   -4.8399751            0   -1.2333929    5.9210368     960.9529 
    7300    2.3677234   -4.8167253            0   -1.2692509    6.0730124    958.09967 
    7400    2.5362368   -4.8242781            0   -1.0243261    5.6678493     970.3679 
    7500    2.3487308   -4.8059388            0   -1.2869203     6.441257     951.4141 
    7600    2.4809378   -4.9457219            0   -1.2286223    4.8328957    975.01087 
    7700    2.4035909   -4.8278668            0   -1.2266533    5.8214643    963.76541 
    7800    2.3867562   -4.8172216            0    -1.241231     5.962986    960.00232 
    7900    2.3373237   -4.9004997            0    -1.398572    5.3438384    964.13993 
    8000    2.4265085   -4.8890139            0   -1.2534638    5.5863406    960.18407 
    8100    2.3311828   -4.8399283            0   -1.3472013    5.4909234    968.30691 
    8200    2.5062638   -4.7965209            0   -1.0414764    6.5577257     953.1613 
    8300    2.3143618   -4.8668381            0   -1.3993133    4.7984811    977.51326 
    8400    2.4801081    -4.885523            0   -1.1696666    6.2100198    946.26529 
    8500    2.3696349   -4.8921758            0   -1.3418374    5.3567435    969.38287 
    8600     2.448871     -4.85086            0    -1.181805    5.4142013    972.50185 
    8700    2.3970743   -4.8834199            0     -1.29197    5.5418683    962.71678 
    8800    2.4141338   -4.8637004            0   -1.2466909    5.6018702    964.66815 
    8900    2.3447521   -4.7886362            0   -1.2755788    6.3602819    957.39658 
    9000    2.3990801   -4.7992755            0   -1.2048204    5.0047849    983.77177 
    9100    2.3665784   -4.6766806            0   -1.1309216    6.3255979    966.21829 
    9200    2.3907042    -4.757793            0   -1.1758871     5.626375    977.56825 
    9300    2.4432312   -4.8664171            0   -1.2058119    4.9636877     978.8531 
    9400    2.3902353   -4.8063623            0    -1.225159    5.8442525    965.85083 
    9500    2.5059723   -4.8282723            0   -1.0736645    5.8941496    966.33017 
    9600    2.3427493   -4.9110556            0   -1.4009989    5.6956185    954.83743 
    9700    2.4120297   -4.9951688            0   -1.3813118    5.7707402    943.07917 
    9800      2.46057   -4.9572811            0   -1.2706979    5.4794157    954.64576 
    9900    2.3253151   -4.9085928            0   -1.4246571    5.5217339    959.58527 
   10000     2.480797   -4.8545006            0    -1.137612    6.7054856    943.67449 
Loop time of 1.70191 on 12 procs for 10000 steps with 864 atoms

Performance: 1015329.932 tau/day, 5875.752 timesteps/s
99.7% CPU use with 12 MPI tasks x no OpenMP threads

MPI task timing breakdown:
Section |  min time  |  avg time  |  max time  |%varavg| %total
---------------------------------------------------------------
Pair    | 0.73295    | 0.77847    | 0.82389    |   3.4 | 45.74
Neigh   | 0.12565    | 0.13148    | 0.13822    |   1.0 |  7.73
Comm    | 0.57792    | 0.63276    | 0.68459    |   4.4 | 37.18
Output  | 0.0018744  | 0.0019331  | 0.0022796  |   0.2 |  0.11
Modify  | 0.14134    | 0.14366    | 0.14667    |   0.4 |  8.44
Other   |            | 0.01361    |            |       |  0.80

Nlocal:        72.0000 ave          79 max          63 min
Histogram: 1 0 1 1 2 1 3 0 2 1
Nghost:        1476.75 ave        1512 max        1442 min
Histogram: 1 1 2 0 0 4 2 0 1 1
Neighs:        7515.67 ave        7980 max        6553 min
Histogram: 1 0 0 0 1 3 2 0 2 3

Total # of neighbors = 90188
Ave neighs/atom = 104.38426
Neighbor list builds = 842
Dangerous builds = 64

# Equilibrate just above the melting temperature to avoid step fn in T

fix 1 all npt temp 1.25 1.25 0.1 iso 5.68 5.68 0.5 mtk yes tchain 5 pchain 5
run 2000
Per MPI rank memory allocation (min/avg/max) = 3.634 | 3.635 | 3.635 Mbytes
Step Temp E_pair E_mol TotEng Press Volume 
   10000     2.480797   -4.8545006            0    -1.137612    6.7054856    943.67449 
   10100    1.8460199   -5.1817353            0   -2.4159104    5.7282459    916.06474 
   10200    1.6019551   -5.6134248            0   -3.2132732    5.9796878    867.37594 
   10300    1.4812703   -6.0075794            0   -3.7882456    5.7779387    832.73915 
   10400    1.3536562   -6.2377243            0   -4.2095901    5.3734508    818.15357 
   10500    1.2487875   -6.3397366            0   -4.4687234    5.6307206    803.92279 
   10600    1.2845439   -6.5172253            0   -4.5926396    6.1145404    785.63472 
   10700    1.2707909   -6.6082298            0   -4.7042497    6.1771325     778.7693 
   10800    1.2119398   -6.6053714            0   -4.7895657    5.6369527    785.17546 
   10900    1.2560527   -6.6136693            0   -4.7317709    5.1617429    790.35065 
   11000    1.2608329   -6.5779792            0   -4.6889188    5.3374141    790.22967 
   11100    1.3011789   -6.5879099            0   -4.6384005    5.8835073     782.8388 
   11200    1.2444037   -6.6034579            0   -4.7390128    5.7826839    783.29905 
   11300    1.2216496   -6.6224001            0   -4.7920467    5.2624134    787.21901 
   11400    1.2634647    -6.591902            0   -4.6988985     5.731859    785.59581 
   11500    1.1648281   -6.4584265            0   -4.7132067    5.9702621    789.55866 
   11600    1.2757181   -6.4583014            0    -4.546939    6.3525225    786.44114 
   11700    1.2977299   -6.5769275            0   -4.6325857    5.6907918    786.13631 
   11800    1.1971956   -6.5906827            0   -4.7969678    5.8110615    782.28271 
   11900    1.2350104   -6.6090106            0   -4.7586392    5.3635595    787.20075 
   12000    1.2467221   -6.5590263            0   -4.6911076    5.5955045    785.66117 
Loop time of 0.371511 on 12 procs for 2000 steps with 864 atoms

Performance: 930255.055 tau/day, 5383.420 timesteps/s
99.7% CPU use with 12 MPI tasks x no OpenMP threads

MPI task timing breakdown:
Section |  min time  |  avg time  |  max time  |%varavg| %total
---------------------------------------------------------------
Pair    | 0.17307    | 0.1864     | 0.19941    |   2.0 | 50.17
Neigh   | 0.024425   | 0.025392   | 0.026484   |   0.4 |  6.83
Comm    | 0.11179    | 0.12641    | 0.14119    |   2.6 | 34.02
Output  | 0.00038657 | 0.00039775 | 0.00047958 |   0.0 |  0.11
Modify  | 0.028332   | 0.029015   | 0.029794   |   0.2 |  7.81
Other   |            | 0.0039     |            |       |  1.05

Nlocal:        72.0000 ave          79 max          64 min
Histogram: 1 0 2 1 2 0 2 1 2 1
Nghost:        1680.25 ave        1697 max        1666 min
Histogram: 3 0 1 0 2 3 0 1 1 1
Neighs:        9090.58 ave       10319 max        7524 min
Histogram: 1 1 0 0 3 2 1 1 1 2

Total # of neighbors = 109087
Ave neighs/atom = 126.25810
Neighbor list builds = 130
Dangerous builds = 6

#############################
# L I N E A R  Q U E N C H  #
#############################

# Define solid atoms. This closely follows ten Wolde  Ruiz-Montero and Frenkel  Faraday Discuss  1996  104  93-110
# Compute components of the per-atom q6 vector
compute q6 all orientorder/atom degrees 1 6 components 6 nnn NULL cutoff 1.3 # compute the Q6 parameter.
                                                                             # Use all neighbours within 1.3 unit cell.

# get number of connections
compute coord_number all coord/atom orientorder q6 0.5

# An atom is solid if it has 8 or more connections (of a possible 14)
variable is_solid atom c_coord_number>=8
group solid dynamic all var is_solid    # Must be dynamic to update
dynamic group solid defined

# do clustering
compute cluster solid cluster/atom 1.3 # Create a cluster where all atoms within are solid and max 1.3 units from another member

# define chunks one chunk per cluster
compute clus_chunks solid chunk/atom c_cluster nchunk every compress yes  # Says which atoms are in which chunk

# count the size of each chunk
compute size_chunks solid property/chunk clus_chunks count


# Find the maximum entry in the vector of chunk sizes
variable max_n equal max(c_size_chunks)


# Thermo style which includes this variable
# thermo_style custom step temp pe vol v_max_n

thermo ${N}  # Print the thermo information every 100 steps
thermo 1000  

# Reset the npt fix at a lower temperature (below freezing)
fix 1  all npt temp  ${temp} ${temp}  0.1  iso  5.68  5.68  0.5  mtk yes tchain  5  pchain  5
fix 1  all npt temp  0.6 ${temp}  0.1  iso  5.68  5.68  0.5  mtk yes tchain  5  pchain  5
fix 1  all npt temp  0.6 0.6  0.1  iso  5.68  5.68  0.5  mtk yes tchain  5  pchain  5

dump dmp2 all dcd ${N} traj.dcd
dump dmp2 all dcd 1000 traj.dcd

compute msd all msd com yes
variable twopoint equal c_msd[4]/6/(step*dt+1.0e-6)
fix 9 all vector 10 c_msd[4]
variable fit equal slope(f_9)/6/(10*dt)
thermo_style custom step temp pe c_msd[4] v_twopoint v_fit v_max_n

fix 1 all npt temp 1.25 ${temp} 0.1 iso 5.68 5.68 0.5 mtk yes tchain 5 pchain 5
fix 1 all npt temp 1.25 0.6 0.1 iso 5.68 5.68 0.5 mtk yes tchain 5 pchain 5
run 100000 # 5000000  # Run for this many steps
Neighbor list info ...
  update every 1 steps, delay 10 steps, check yes
  max neighbors/atom: 2000, page size: 100000
  master list distance cutoff = 3.8
  ghost atom cutoff = 3.8
  binsize = 1.9, bins = 5 5 5
  4 neighbor lists, perpetual/occasional/extra = 1 3 0
  (1) pair lj/cut, perpetual
      attributes: half, newton on
      pair build: half/bin/atomonly/newton
      stencil: half/bin/3d
      bin: standard
  (2) compute orientorder/atom, occasional
      attributes: full, newton on
      pair build: full/bin/atomonly
      stencil: full/bin/3d
      bin: standard
  (3) compute coord/atom, occasional
      attributes: full, newton on
      pair build: full/bin/atomonly
      stencil: full/bin/3d
      bin: standard
  (4) compute cluster/atom, occasional
      attributes: full, newton on
      pair build: full/bin/atomonly
      stencil: full/bin/3d
      bin: standard
Per MPI rank memory allocation (min/avg/max) = 9.685 | 9.689 | 9.694 Mbytes
Step Temp PotEng c_msd[4] v_twopoint v_fit v_max_n 
   12000    1.2467221   -6.5590263 8.3451258e-31 5.795226e-33 8.3333333e+20            1 
   13000    1.1994238   -6.5041456    0.5816074 0.0037282525  0.048715089            1 
   14000    1.2078678   -6.5577858    1.1047897 0.0065761288  0.045879511            1 
   15000    1.2478259   -6.6322864    1.5815649 0.0087864712   0.04332759       -1e+20 
   16000    1.2055114   -6.6234655    2.0961389   0.01091739  0.041974488            3 
   17000     1.164378   -6.5524219    2.5709905  0.012602894  0.041408065            1 
   18000    1.1734324    -6.627852     2.946813  0.013642653  0.040729804            2 
   19000    1.1992113   -6.6376043    3.3799314   0.01482426  0.039001904       -1e+20 
   20000    1.1831244   -6.7347507     3.737141  0.015571421  0.038772125            1 
   21000     1.156738   -6.7593824    4.1538509  0.016483535  0.037948008       -1e+20 
   22000    1.1795819   -6.6319083    4.5212473  0.017125936  0.037416124            4 
   23000    1.2552217   -6.6860715     4.938191  0.017891996  0.036787443            2 
   24000    1.1676919   -6.6619817    5.3946346   0.01873137  0.036360608            1 
   25000    1.1514883   -6.6767469     5.776016  0.019253386  0.035940123            1 
   26000    1.1541735    -6.784502    6.1426486  0.019687976  0.035629609            1 
   27000     1.080177   -6.7063042    6.6244488  0.020445829  0.035487797            1 
   28000    1.1465632   -6.6998918    7.0255585    0.0209094  0.035432336            1 
   29000    1.1094126   -6.8307345    7.1012176  0.020405797  0.035002895            1 
   30000    1.1170231   -6.7960146    7.4658636   0.02073851  0.034466529            1 
   31000    1.1157541   -6.8281436    7.7600836  0.020860439  0.033929653       -1e+20 
   32000    1.1011137   -6.7545888    8.1792177  0.021300046  0.033440749            1 
   33000    1.1070904   -6.8958271    8.4842163  0.021424788  0.033019616            1 
   34000    1.0842977   -6.8640094    8.8075307  0.021587085  0.032696792            1 
   35000    1.1057409    -6.901513    9.1027778   0.02167328  0.032355731            1 
   36000    1.1021454   -6.9346023    9.4509144  0.021877116  0.032004598            1 
   37000    1.1062532   -6.9375705    9.8837408  0.022260677  0.031743125            2 
   38000     1.148242   -6.9670718    9.9991492  0.021927958  0.031534748            3 
   39000    1.0786866   -6.8287195    10.405543  0.022234066  0.031231679            1 
   40000    1.0553604   -6.8666099    10.633054  0.022152196   0.03101016            1 
   41000    1.1214538   -6.9170099    11.053053  0.022465555   0.03077707            1 
   42000    1.1019229   -6.9427496    11.436509  0.022691486  0.030567913            2 
   43000    1.1070708   -6.9859297    11.555282  0.022393957  0.030384344            1 
   44000    1.0550853   -6.9178186    11.757537  0.022268062   0.03015631            1 
   45000    1.0520085   -7.0302574    11.990494  0.022204618  0.029900097            1 
   46000    1.0478626   -6.9489722    12.375027  0.022418527  0.029643923       -1e+20 
   47000    1.0077261   -7.0038118    12.486356  0.022138929  0.029376448            1 
   48000    1.0296681   -6.9546461    12.770479   0.02217097  0.029099645            1 
   49000   0.99777228    -7.030443    13.189256  0.022430708  0.028840363            1 
   50000    1.0090349   -7.0724757    13.408578   0.02234763  0.028600304            2 
   51000    1.0294001   -7.0936313    13.660827  0.022321612  0.028381214            1 
   52000    0.9974689   -7.1403261    13.816474  0.022141785  0.028163911            1 
   53000   0.99844746    -7.071153    13.813666  0.021719601  0.027888455            1 
   54000    1.0166021   -7.1532658    14.055858  0.021691138  0.027609841            1 
   55000   0.97995905   -7.1461212    14.326492  0.021706805  0.027319974            1 
   56000   0.92679783   -7.1314304    14.523782  0.021612771  0.027058939       -1e+20 
   57000   0.96573946   -7.1343454    14.865993  0.021733908  0.026810697            1 
   58000   0.93799804   -7.1733832    14.881124  0.021380925  0.026554036            2 
   59000   0.91574483   -7.1717192    14.988692  0.021170468  0.026283609            1 
   60000   0.97770925   -7.2794136    15.031936  0.020877689  0.025993503            2 
   61000   0.99479685   -7.2470112    15.178606    0.0207358  0.025687963            3 
   62000   0.85847728   -7.2727744     15.19071  0.020417621  0.025381779            3 
   63000   0.91210782    -7.278156    15.322009  0.020267208  0.025068581            1 
   64000   0.92700353   -7.2695099    15.559729  0.020260063  0.024761782            1 
   65000   0.94118344   -7.2610494    15.748698  0.020190638  0.024489631            1 
   66000   0.93269499   -7.2652841    15.986662  0.020185179  0.024223667            1 
   67000   0.93907987    -7.274201    15.908907  0.019787197  0.023947423            3 
   68000   0.88686269   -7.2646839    16.154096  0.019796686  0.023665839            1 
   69000   0.91483024   -7.3762942    16.210637  0.019578064  0.023408613       -1e+20 
   70000   0.88597328    -7.371418    16.611623  0.019775741  0.023160705            1 
   71000   0.87889956   -7.3531038     16.74356  0.019652065  0.022928131            4 
   72000   0.87457858   -7.4079748    16.613352  0.019228417  0.022683054            1 
   73000   0.88536062   -7.4167672    16.595706   0.01894487   0.02242251            2 
   74000   0.83219895   -7.4352941    16.882214  0.019011502  0.022166389            2 
   75000    0.8055708   -7.3590184    17.063901   0.01895989   0.02191665            1 
   76000   0.79718162   -7.4156598    17.067688   0.01871457  0.021683466       -1e+20 
   77000   0.80286904   -7.4519894    17.098064  0.018504398  0.021440334            4 
   78000   0.84017254   -7.4789381    17.374895  0.018562922   0.02120959            2 
   79000   0.76998867   -7.4580403    17.413586  0.018368761   0.02098407            3 
   80000    0.7884672   -7.4627195    17.467869  0.018195697  0.020762159            2 
   81000   0.77473308   -7.5115146    17.594212  0.018101041   0.02053535            3 
   82000   0.80114144   -7.5709943    17.694607  0.017982324  0.020311002            3 
   83000   0.79036651   -7.5603345    17.734195  0.017805417  0.020093642            3 
   84000   0.78855925   -7.5571947    17.846455  0.017704816  0.019877782            3 
   85000   0.81409995   -7.5830833    17.795759  0.017446822  0.019664159            1 
   86000    0.7736536   -7.4866744    17.860101  0.017306299  0.019446141            2 
   87000   0.77345761   -7.5220012    18.093847  0.017331271  0.019232873            1 
   88000   0.78866721   -7.5326545    18.059807   0.01710209  0.019024888            1 
   89000   0.70771942   -7.5554559    18.069565  0.016919068  0.018813893            2 
   90000    0.7412917   -7.6484573    18.057103   0.01671954  0.018600017            2 
   91000   0.73752249   -7.6157135     18.10425  0.016578984  0.018383741            2 
   92000   0.69462837   -7.6478996     18.18142  0.016468678  0.018171863            1 
   93000   0.74471037   -7.6445314    18.167669  0.016279273  0.017957335            2 
   94000   0.72777275   -7.6254677    18.240241  0.016170427  0.017745501            4 
   95000   0.75110271   -7.6577876    18.458289  0.016191481  0.017543547            3 
   96000   0.71618177   -7.7164989    18.301813   0.01588699  0.017347053            1 
   97000   0.68116395   -7.7055104    18.380776  0.015791044  0.017151274            3 
   98000   0.66109757   -7.7133895    18.427252  0.015669432  0.016955758            1 
   99000    0.6589558   -7.7259715    18.488167   0.01556243     0.016764            2 
  100000   0.69322928   -7.6980417    18.497412   0.01541451  0.016577462            1 
  101000   0.66157869   -7.8303368    18.584917   0.01533409  0.016390378            3 
  102000   0.65583236   -7.7666807    18.617229  0.015210154  0.016205026            3 
  103000   0.66437511    -7.762033    18.606773  0.015054024  0.016022938            1 
  104000   0.67890972   -7.8197976    18.715119  0.014996089  0.015844109            4 
  105000   0.67322538   -7.7915276    18.771908   0.01489834  0.015669365            4 
  106000   0.62675325   -7.8103209    18.732307  0.014726657  0.015495184            5 
  107000   0.62384009   -7.8333235    18.753754  0.014605727  0.015320107            6 
  108000   0.63155841   -7.9090672    18.737933  0.014458282   0.01514774            2 
  109000   0.64193778   -7.8840903    18.759205    0.0143419  0.014977686           14 
  110000   0.60161386   -7.8616995    18.791716  0.014236148  0.014807352           10 
  111000   0.62311663    -7.896004    18.605084  0.013967781  0.014635119           10 
  112000   0.60917251    -7.938273     18.67698  0.013896563  0.014463951            9 
Loop time of 187.096 on 12 procs for 100000 steps with 864 atoms

Performance: 92359.238 tau/day, 534.486 timesteps/s
99.3% CPU use with 12 MPI tasks x no OpenMP threads

MPI task timing breakdown:
Section |  min time  |  avg time  |  max time  |%varavg| %total
---------------------------------------------------------------
Pair    | 11.174     | 11.938     | 12.804     |  15.9 |  6.38
Neigh   | 1.2499     | 1.274      | 1.3123     |   2.0 |  0.68
Comm    | 5.9114     | 6.9696     | 7.7894     |  23.0 |  3.73
Output  | 0.1663     | 0.16639    | 0.16727    |   0.1 |  0.09
Modify  | 165.38     | 165.75     | 166.07     |   1.4 | 88.59
Other   |            | 0.9971     |            |       |  0.53

Nlocal:        72.0000 ave          77 max          69 min
Histogram: 2 2 1 2 0 3 0 1 0 1
Nghost:        1819.75 ave        1832 max        1804 min
Histogram: 2 0 1 0 1 1 2 2 2 1
Neighs:        10331.0 ave       11492 max        9558 min
Histogram: 2 2 0 1 3 1 2 0 0 1
FullNghs:      20662.6 ave       22084 max       19723 min
Histogram: 2 2 0 2 2 2 0 1 0 1

Total # of neighbors = 247951
Ave neighs/atom = 286.98032
Neighbor list builds = 5248
Dangerous builds = 0

#clear
#
#next RN
#
#jump SELF
Total wall time: 0:03:09
