
units lj                  # Use reduced LJ style units
atom_style atomic         # Uncharged point particles
atom_modify map hash      # Needed for indexing of clusters etc
                          # Used to be able to find where atoms are in relation to each other.

lattice fcc 1.0 spacing 1 1 1
Lattice spacing in x,y,z = 1.5874011 1.5874011 1.5874011
region box block 0 6 0 6 0 6 units lattice
create_box 2 box
Created orthogonal box = (0.0000000 0.0000000 0.0000000) to (9.5244063 9.5244063 9.5244063)
  2 by 2 by 3 MPI processor grid
create_atoms 1 box
Created 864 atoms
  using lattice units in orthogonal box = (0.0000000 0.0000000 0.0000000) to (9.5244063 9.5244063 9.5244063)
  create_atoms CPU = 0.001 seconds
set type 1 type/fraction 2 0.2 78393
Setting atom values ...
  181 settings made for type/fraction
mass 1 1.0
mass 2 1.0
pair_style lj/cut  3.5
pair_modify tail  yes
pair_coeff 1  1  1.0  1.0   # Intearaction between 1 and 1 set with epsilon = 1 and sigma = 1
pair_coeff 1  2  1.5  0.8
pair_coeff 2  2  0.5  0.88

write_data data.0
System init for write_data ...
Neighbor list info ...
  update every 1 steps, delay 10 steps, check yes
  max neighbors/atom: 2000, page size: 100000
  master list distance cutoff = 3.8
  ghost atom cutoff = 3.8
  binsize = 1.9, bins = 6 6 6
  1 neighbor lists, perpetual/occasional/extra = 1 0 0
  (1) pair lj/cut, perpetual
      attributes: half, newton on
      pair build: half/bin/atomonly/newton
      stencil: half/bin/3d
      bin: standard
WARNING: Not all mixed pair coeffs generated from mixing. Use write_data with 'pair ij' option to store all pair coeffs. (../write_data.cpp:312)


#############################
#   M E L T   S Y S T E M   #
#############################

velocity all create 2.4 4344764 mom yes dist gaussian # Assign velocities
                                                    # Temperature 2.4, random number seed, zero linear momentum
                                                                                # Gaussian distribution

timestep 0.002   # simulation timestep
thermo 100       # output thermodynamic data every 100 steps

# Define a fix  in this case with index 1 applied to all
# particles in the simulation. This fix is for simulations
# in the anisotropic NPT ensemble. Note that we use the MTK
# correction.
fix 1 all npt temp 2.4 2.4 0.1 iso 5.68 5.68 0.5 mtk yes tchain 5 pchain 5 # Use NPT ensemble
                                                                         # Set temperature and pressure and damping
                                                                         # Numbers of thermostats in chain and in barostat
run 10000          # run for 10000 steps
Per MPI rank memory allocation (min/avg/max) = 3.633 | 3.633 | 3.634 Mbytes
Step Temp E_pair E_mol TotEng Press Volume 
       0          2.4   -7.0327211            0   -3.4368878   -3.5977146          864 
     100    1.9056284   -5.8027623            0   -2.9476281     6.108972    842.39628 
     200    1.9753368    -5.389073            0   -2.4294972    5.7904706    889.31975 
     300    2.2295102    -5.240742            0   -1.9003473    5.3578351    921.78432 
     400    2.3587484   -5.0212369            0   -1.4872094     5.953202    938.33077 
     500    2.3523497   -4.7877038            0   -1.2632631    5.7652839    962.56224 
     600    2.4019412   -4.7456269            0   -1.1468851    5.7094688    971.63903 
     700    2.3175982   -4.8682766            0   -1.3959028    5.7096032    957.16627 
     800    2.4413902   -4.9389669            0   -1.2811201    5.5764084    951.57177 
     900    2.2852361   -4.9819655            0   -1.5580788    5.5883735      945.487 
    1000    2.3631921   -4.9713414            0    -1.430656    5.9658728    943.84311 
    1100    2.4182543   -4.9309738            0   -1.3077907    5.3749687    960.22795 
    1200    2.3727373   -4.7750578            0   -1.2200712     5.866176    965.26404 
    1300    2.3365963   -4.9533136            0   -1.4524757    6.1252536    945.77715 
    1400    2.3797627   -5.0110212            0   -1.4455087    5.4464203    949.61262 
    1500    2.4365972   -4.8546471            0   -1.2039815    5.2712705    971.10543 
    1600    2.3836912   -4.8153225            0    -1.243924    5.7186828    968.31559 
    1700    2.3427466    -4.897171            0   -1.3871183    6.0208557    950.31322 
    1800    2.3820469     -4.92027            0   -1.3513351     5.025094    971.05176 
    1900    2.5002318   -4.8040971            0   -1.0580902    5.7792585    967.84499 
    2000    2.3080003   -4.7927336            0   -1.3347401    5.7952613    970.76834 
    2100    2.5276436   -4.8409862            0   -1.0539091    5.9618834    960.72359 
    2200    2.3237749   -4.9071094            0   -1.4254814    5.0808818    968.63643 
    2300    2.4026018   -4.8342249            0   -1.2344933    5.7556414    962.09525 
    2400    2.4006847   -4.7946972            0    -1.197838    6.0264046    959.56954 
    2500    2.4162549   -4.8360437            0   -1.2158561    5.2307596    975.93796 
    2600     2.447166   -4.6965949            0   -1.0300944    5.6198567    983.71076 
    2700     2.333294   -4.7587841            0   -1.2628939    5.7709977    971.03724 
    2800    2.3037604   -4.8589287            0   -1.4072877    5.9863421    952.77146 
    2900    2.3909454   -4.8066196            0   -1.2243524    5.8870086    967.07639 
    3000    2.2737709   -4.8359489            0   -1.4292402    5.9444641    958.43324 
    3100    2.3003369   -4.8506353            0   -1.4041236    6.0014505     958.3535 
    3200    2.4443995   -4.8617268            0   -1.1993713    5.9646448    956.40397 
    3300    2.2792798   -4.8072602            0   -1.3922977    5.4031942    971.27173 
    3400    2.4846267   -4.7986643            0   -1.0760379      5.91047    969.24358 
    3500    2.3093995   -4.8136291            0   -1.3535392    5.6518844    968.76973 
    3600    2.3189609   -4.8581378            0   -1.3837224    6.1414205    950.04534 
    3700    2.2921663   -4.7064815            0   -1.2722115    6.0893032    965.51674 
    3800    2.4057047   -4.7381702            0   -1.1337897    5.7256825    975.68078 
    3900    2.4312789   -4.7892724            0   -1.1465749    5.9546732    963.98507 
    4000    2.3450119   -4.9132701            0   -1.3998234    5.3819827    967.63182 
    4100    2.5132426   -4.8737158            0   -1.1082153    5.7981702    961.40901 
    4200    2.3129185   -4.7861947            0   -1.3208325    5.4987306    973.83693 
    4300    2.4998229   -4.7888682            0   -1.0434739    5.7461004    970.25351 
    4400    2.3119767    -4.693628            0   -1.2296769     6.016701    966.79594 
    4500    2.4018303   -4.8911331            0   -1.2925575    5.8442648    956.83058 
    4600    2.4504928   -4.8320471            0   -1.1605623    5.5700453    967.60199 
    4700    2.4332074   -4.8754967            0     -1.22991    5.0541412    972.95817 
    4800    2.4377549    -4.949287            0   -1.2968868     5.844099    948.97591 
    4900    2.3058949   -4.9073195            0   -1.4524804     5.261439    964.37752 
    5000    2.4066587   -4.8190656            0   -1.2132558    6.1097123    959.28159 
    5100    2.4787427   -4.8793299            0   -1.1655192    5.0787954    976.28503 
    5200     2.385221   -4.8147955            0    -1.241105    5.8315004    963.11165 
    5300    2.3551099   -4.7154376            0   -1.1868614    6.0350875    969.81843 
    5400    2.4210341   -4.8549445            0   -1.2275965    5.1459117    978.88334 
    5500    2.4455094    -4.800965            0   -1.1369465    6.5616725    948.30672 
    5600    2.2892615   -4.8715973            0   -1.4416793    5.7638045    958.47331 
    5700    2.4156041   -4.8646922            0   -1.2454798    5.5187814    967.94893 
    5800    2.4284199   -4.8023678            0    -1.163954    5.5082411    972.02171 
    5900    2.4316552   -4.7055672            0    -1.062306    5.6021218    983.28367 
    6000    2.3524127   -4.7129284            0   -1.1883935    5.8873294    976.43524 
    6100    2.4001353   -4.8298744            0   -1.2338384    5.6189684    963.54162 
    6200    2.3654288   -4.7912928            0   -1.2472563     5.390185    976.50582 
    6300      2.45844   -4.6648848            0  -0.98149293    5.5711483    986.38636 
    6400    2.3448133   -4.7315661            0   -1.2184171    5.7560381    978.04131 
    6500     2.433749   -4.8299304            0   -1.1835321    6.0165411    958.35233 
    6600     2.367044   -4.9919012            0   -1.4454446    5.6214048    952.43935 
    6700    2.3579077   -4.8006253            0   -1.2678574    5.6762427    968.56281 
    6800    2.4825932   -4.8565152            0   -1.1369355    5.6827546    965.43746 
    6900    2.3176387   -4.8733064            0    -1.400872    5.4332751    965.41905 
    7000    2.4093838   -4.7845438            0    -1.174651    6.3234817    959.96172 
    7100    2.4054692   -4.7795047            0   -1.1754771    5.4357761    978.75629 
    7200    2.4071743   -4.8399751            0   -1.2333929    5.9210368     960.9529 
    7300    2.3677234   -4.8167253            0   -1.2692509    6.0730124    958.09967 
    7400    2.5362368   -4.8242781            0   -1.0243261    5.6678493     970.3679 
    7500    2.3487308   -4.8059388            0   -1.2869203     6.441257     951.4141 
    7600    2.4809378   -4.9457219            0   -1.2286223    4.8328957    975.01087 
    7700    2.4035909   -4.8278668            0   -1.2266533    5.8214643    963.76541 
    7800    2.3867562   -4.8172216            0    -1.241231     5.962986    960.00232 
    7900    2.3373237   -4.9004997            0    -1.398572    5.3438384    964.13993 
    8000    2.4265085   -4.8890139            0   -1.2534638    5.5863406    960.18407 
    8100    2.3311828   -4.8399283            0   -1.3472013    5.4909234    968.30691 
    8200    2.5062638   -4.7965209            0   -1.0414764    6.5577257     953.1613 
    8300    2.3143618   -4.8668381            0   -1.3993133    4.7984811    977.51326 
    8400    2.4801081    -4.885523            0   -1.1696666    6.2100198    946.26529 
    8500    2.3696349   -4.8921758            0   -1.3418374    5.3567435    969.38287 
    8600     2.448871     -4.85086            0    -1.181805    5.4142013    972.50185 
    8700    2.3970743   -4.8834199            0     -1.29197    5.5418683    962.71678 
    8800    2.4141338   -4.8637004            0   -1.2466909    5.6018702    964.66815 
    8900    2.3447521   -4.7886362            0   -1.2755788    6.3602819    957.39658 
    9000    2.3990801   -4.7992755            0   -1.2048204    5.0047849    983.77177 
    9100    2.3665784   -4.6766806            0   -1.1309216    6.3255979    966.21829 
    9200    2.3907042    -4.757793            0   -1.1758871     5.626375    977.56825 
    9300    2.4432312   -4.8664171            0   -1.2058119    4.9636877     978.8531 
    9400    2.3902353   -4.8063623            0    -1.225159    5.8442525    965.85083 
    9500    2.5059723   -4.8282723            0   -1.0736645    5.8941496    966.33017 
    9600    2.3427493   -4.9110556            0   -1.4009989    5.6956185    954.83743 
    9700    2.4120297   -4.9951688            0   -1.3813118    5.7707402    943.07917 
    9800      2.46057   -4.9572811            0   -1.2706979    5.4794157    954.64576 
    9900    2.3253151   -4.9085928            0   -1.4246571    5.5217339    959.58527 
   10000     2.480797   -4.8545006            0    -1.137612    6.7054856    943.67449 
Loop time of 1.72449 on 12 procs for 10000 steps with 864 atoms

Performance: 1002034.459 tau/day, 5798.811 timesteps/s
99.8% CPU use with 12 MPI tasks x no OpenMP threads

MPI task timing breakdown:
Section |  min time  |  avg time  |  max time  |%varavg| %total
---------------------------------------------------------------
Pair    | 0.72322    | 0.78106    | 0.85153    |   3.9 | 45.29
Neigh   | 0.12501    | 0.13228    | 0.14242    |   1.2 |  7.67
Comm    | 0.56431    | 0.64361    | 0.71073    |   4.7 | 37.32
Output  | 0.0018894  | 0.001953   | 0.0023038  |   0.2 |  0.11
Modify  | 0.14911    | 0.15163    | 0.15487    |   0.4 |  8.79
Other   |            | 0.01395    |            |       |  0.81

Nlocal:        72.0000 ave          79 max          63 min
Histogram: 1 0 1 1 2 1 3 0 2 1
Nghost:        1476.75 ave        1512 max        1442 min
Histogram: 1 1 2 0 0 4 2 0 1 1
Neighs:        7515.67 ave        7980 max        6553 min
Histogram: 1 0 0 0 1 3 2 0 2 3

Total # of neighbors = 90188
Ave neighs/atom = 104.38426
Neighbor list builds = 842
Dangerous builds = 64

# Equilibrate just above the melting temperature to avoid step fn in T

fix 1 all npt temp 1.25 1.25 0.1 iso 5.68 5.68 0.5 mtk yes tchain 5 pchain 5
run 2000
Per MPI rank memory allocation (min/avg/max) = 3.634 | 3.635 | 3.635 Mbytes
Step Temp E_pair E_mol TotEng Press Volume 
   10000     2.480797   -4.8545006            0    -1.137612    6.7054856    943.67449 
   10100    1.8460199   -5.1817353            0   -2.4159104    5.7282459    916.06474 
   10200    1.6019551   -5.6134248            0   -3.2132732    5.9796878    867.37594 
   10300    1.4812703   -6.0075794            0   -3.7882456    5.7779387    832.73915 
   10400    1.3536562   -6.2377243            0   -4.2095901    5.3734508    818.15357 
   10500    1.2487875   -6.3397366            0   -4.4687234    5.6307206    803.92279 
   10600    1.2845439   -6.5172253            0   -4.5926396    6.1145404    785.63472 
   10700    1.2707909   -6.6082298            0   -4.7042497    6.1771325     778.7693 
   10800    1.2119398   -6.6053714            0   -4.7895657    5.6369527    785.17546 
   10900    1.2560527   -6.6136693            0   -4.7317709    5.1617429    790.35065 
   11000    1.2608329   -6.5779792            0   -4.6889188    5.3374141    790.22967 
   11100    1.3011789   -6.5879099            0   -4.6384005    5.8835073     782.8388 
   11200    1.2444037   -6.6034579            0   -4.7390128    5.7826839    783.29905 
   11300    1.2216496   -6.6224001            0   -4.7920467    5.2624134    787.21901 
   11400    1.2634647    -6.591902            0   -4.6988985     5.731859    785.59581 
   11500    1.1648281   -6.4584265            0   -4.7132067    5.9702621    789.55866 
   11600    1.2757181   -6.4583014            0    -4.546939    6.3525225    786.44114 
   11700    1.2977299   -6.5769275            0   -4.6325857    5.6907918    786.13631 
   11800    1.1971956   -6.5906827            0   -4.7969678    5.8110615    782.28271 
   11900    1.2350104   -6.6090106            0   -4.7586392    5.3635595    787.20075 
   12000    1.2467221   -6.5590263            0   -4.6911076    5.5955045    785.66117 
Loop time of 0.386732 on 12 procs for 2000 steps with 864 atoms

Performance: 893641.914 tau/day, 5171.539 timesteps/s
99.7% CPU use with 12 MPI tasks x no OpenMP threads

MPI task timing breakdown:
Section |  min time  |  avg time  |  max time  |%varavg| %total
---------------------------------------------------------------
Pair    | 0.17119    | 0.18871    | 0.20048    |   2.0 | 48.80
Neigh   | 0.024401   | 0.025641   | 0.026908   |   0.6 |  6.63
Comm    | 0.12485    | 0.13748    | 0.15707    |   2.6 | 35.55
Output  | 0.00038013 | 0.00039155 | 0.00045862 |   0.0 |  0.10
Modify  | 0.029481   | 0.030457   | 0.031312   |   0.3 |  7.88
Other   |            | 0.004052   |            |       |  1.05

Nlocal:        72.0000 ave          79 max          64 min
Histogram: 1 0 2 1 2 0 2 1 2 1
Nghost:        1680.25 ave        1697 max        1666 min
Histogram: 3 0 1 0 2 3 0 1 1 1
Neighs:        9090.58 ave       10319 max        7524 min
Histogram: 1 1 0 0 3 2 1 1 1 2

Total # of neighbors = 109087
Ave neighs/atom = 126.25810
Neighbor list builds = 130
Dangerous builds = 6

#############################
# L I N E A R  Q U E N C H  #
#############################

# Define solid atoms. This closely follows ten Wolde  Ruiz-Montero and Frenkel  Faraday Discuss  1996  104  93-110
# Compute components of the per-atom q6 vector
compute q6 all orientorder/atom degrees 1 6 components 6 nnn NULL cutoff 1.3 # compute the Q6 parameter.
                                                                             # Use all neighbours within 1.3 unit cell.

# get number of connections
compute coord_number all coord/atom orientorder q6 0.5

# An atom is solid if it has 8 or more connections (of a possible 14)
variable is_solid atom c_coord_number>=8
group solid dynamic all var is_solid    # Must be dynamic to update
dynamic group solid defined

# do clustering
compute cluster solid cluster/atom 1.3 # Create a cluster where all atoms within are solid and max 1.3 units from another member

# define chunks one chunk per cluster
compute clus_chunks solid chunk/atom c_cluster nchunk every compress yes  # Says which atoms are in which chunk

# count the size of each chunk
compute size_chunks solid property/chunk clus_chunks count


# Find the maximum entry in the vector of chunk sizes
variable max_n equal max(c_size_chunks)


# Thermo style which includes this variable
# thermo_style custom step temp pe vol v_max_n

thermo ${N}  # Print the thermo information every 100 steps
thermo 1000  

# Reset the npt fix at a lower temperature (below freezing)
fix 1  all npt temp  ${temp} ${temp}  0.1  iso  5.68  5.68  0.5  mtk yes tchain  5  pchain  5
fix 1  all npt temp  0.55 ${temp}  0.1  iso  5.68  5.68  0.5  mtk yes tchain  5  pchain  5
fix 1  all npt temp  0.55 0.55  0.1  iso  5.68  5.68  0.5  mtk yes tchain  5  pchain  5

dump dmp2 all dcd ${N} traj.dcd
dump dmp2 all dcd 1000 traj.dcd

compute msd all msd com yes
variable twopoint equal c_msd[4]/6/(step*dt+1.0e-6)
fix 9 all vector 10 c_msd[4]
variable fit equal slope(f_9)/6/(10*dt)
thermo_style custom step temp pe c_msd[4] v_twopoint v_fit v_max_n

fix 1 all npt temp 1.25 ${temp} 0.1 iso 5.68 5.68 0.5 mtk yes tchain 5 pchain 5
fix 1 all npt temp 1.25 0.55 0.1 iso 5.68 5.68 0.5 mtk yes tchain 5 pchain 5
run 100000 # 5000000  # Run for this many steps
Neighbor list info ...
  update every 1 steps, delay 10 steps, check yes
  max neighbors/atom: 2000, page size: 100000
  master list distance cutoff = 3.8
  ghost atom cutoff = 3.8
  binsize = 1.9, bins = 5 5 5
  4 neighbor lists, perpetual/occasional/extra = 1 3 0
  (1) pair lj/cut, perpetual
      attributes: half, newton on
      pair build: half/bin/atomonly/newton
      stencil: half/bin/3d
      bin: standard
  (2) compute orientorder/atom, occasional
      attributes: full, newton on
      pair build: full/bin/atomonly
      stencil: full/bin/3d
      bin: standard
  (3) compute coord/atom, occasional
      attributes: full, newton on
      pair build: full/bin/atomonly
      stencil: full/bin/3d
      bin: standard
  (4) compute cluster/atom, occasional
      attributes: full, newton on
      pair build: full/bin/atomonly
      stencil: full/bin/3d
      bin: standard
Per MPI rank memory allocation (min/avg/max) = 9.685 | 9.689 | 9.694 Mbytes
Step Temp PotEng c_msd[4] v_twopoint v_fit v_max_n 
   12000    1.2467221   -6.5590263 8.3451258e-31 5.795226e-33 8.3333333e+20            1 
   13000    1.2029585   -6.5011777   0.58298056 0.0037370548  0.048748336            1 
   14000    1.1746989   -6.6524986    1.1140244 0.0066310972  0.045603838       -1e+20 
   15000    1.2531851   -6.5566467    1.7223999 0.0095688883  0.046941305            1 
   16000    1.2924849   -6.6674709    2.2107475   0.01151431  0.046281778            3 
   17000    1.2486303   -6.6718138    2.6376192  0.012929506  0.044539554            2 
   18000    1.2339069   -6.6394347    3.1696769   0.01467443  0.043622157            1 
   19000    1.1844809   -6.6824594    3.6016331  0.015796636  0.043182327            1 
   20000    1.1758921    -6.669197    4.0476783  0.016865326  0.042073805            1 
   21000    1.1506537   -6.7319886    4.4150723  0.017520128  0.040986816       -1e+20 
   22000    1.1746117   -6.6845183    4.9267699  0.018662007  0.040232052            1 
   23000    1.1533949   -6.7296617    5.3021391  0.019210649  0.039861989       -1e+20 
   24000    1.1915259   -6.6769291    5.6071006  0.019469099  0.039125003            1 
   25000    1.1577257   -6.6981057     6.015756   0.02005252   0.03826381            1 
   26000    1.1515913   -6.7838739    6.3206836  0.020258601  0.037498874            1 
   27000    1.1421807   -6.7350972    6.5924208  0.020346977  0.036724961            2 
   28000    1.1868864   -6.7633745     7.082054  0.021077541  0.035991686            1 
   29000    1.1533759   -6.7528209    7.4791421  0.021491787  0.035469273            1 
   30000    1.1556986   -6.7749738    7.8372764  0.021770212  0.035127602       -1e+20 
   31000    1.1066482   -6.8172025    8.0472328  0.021632346  0.034611286            1 
   32000    1.1041425   -6.8522289    8.1865394  0.021319113  0.033963997       -1e+20 
   33000    1.0939146   -6.8735932    8.4443962  0.021324233  0.033339701            3 
   34000    1.0654367   -6.8892461    9.0469906  0.022173996  0.032908833            1 
   35000    1.0966683   -6.8292931    9.3963799  0.022372333  0.032640046       -1e+20 
   36000    1.1055228   -6.9613413    9.7361213  0.022537318   0.03239267            1 
   37000    1.1046719    -6.840264    10.057756  0.022652602  0.032183434            1 
   38000    1.1072475    -6.956309    10.558746  0.023155143  0.032066497            1 
   39000    1.0495184   -6.9437646    10.674417  0.022808583  0.031852851       -1e+20 
   40000    1.0277976   -6.9306543    10.943017  0.022797953  0.031588967            1 
   41000   0.99186439   -6.9551371    11.045302  0.022449801  0.031262658       -1e+20 
   42000     1.028565   -7.0201993    11.401528  0.022622079  0.030900481            1 
   43000    1.0511924   -6.9968443    11.523256  0.022331892  0.030532017            1 
   44000    1.0266157   -7.0667925    11.754226  0.022261791  0.030164584            2 
   45000   0.99878078   -7.0108598    11.992317  0.022207994  0.029775948            2 
   46000   0.99864353   -7.0653015    12.112319  0.021942608  0.029432717            1 
   47000   0.99783791   -7.0768686    12.454912  0.022083177  0.029060853            2 
   48000    1.0209025   -7.0421761    12.621282  0.021911949  0.028708963            2 
   49000   0.99229564   -7.1050552    12.746229  0.021677261  0.028350516            1 
   50000   0.98489139   -7.0371151    13.063007  0.021771678  0.027992253            5 
   51000    1.0100002    -7.150823    13.112554  0.021425742  0.027648252            1 
   52000    1.0084521   -7.1710969    13.454188  0.021561199  0.027311644            1 
   53000   0.93190009   -7.1962479    13.718371  0.021569765  0.027009686            3 
   54000   0.93227024   -7.1387752    13.973537  0.021564101  0.026719186            4 
   55000   0.91955401   -7.2242016    14.081218  0.021335178  0.026443248            1 
   56000   0.96523808    -7.159851    14.381468  0.021400994   0.02618222            2 
   57000   0.97189826   -7.2304299    14.464217  0.021146516  0.025920814            3 
   58000   0.94760416   -7.2469037    14.724574  0.021155997   0.02567248            1 
   59000   0.88931931   -7.2296583    14.766236  0.020856265  0.025409908            2 
   60000   0.91040986   -7.2927167    14.946033  0.020758379   0.02512832            4 
   61000   0.89715018   -7.2822623     15.07081  0.020588539  0.024857286            2 
   62000   0.91894346   -7.2351433    15.295322  0.020558228  0.024581484            1 
   63000   0.93854676   -7.2659788    15.473043  0.020466989  0.024311452            1 
   64000   0.91750435   -7.2814314    15.560411  0.020260952  0.024046807            1 
   65000   0.88546363   -7.3259991    15.613337  0.020017098  0.023784279            3 
   66000   0.87030922   -7.3025927    15.885587  0.020057559  0.023509506            3 
   67000   0.85994728   -7.3856626    15.864452  0.019731906   0.02325289            2 
   68000   0.83715105    -7.394916       15.992  0.019598039  0.022987059            2 
   69000   0.79903272   -7.4122954    16.165671  0.019523757  0.022724129            1 
   70000   0.82955458   -7.4345534    16.222432  0.019312419   0.02247224            3 
   71000   0.81380532   -7.3346716    16.452812  0.019310812  0.022224691            2 
   72000   0.80931293   -7.4214978    16.619649  0.019235704  0.021986344            5 
   73000   0.79849061   -7.4921864    16.604282  0.018954659  0.021756168            3 
   74000   0.79787093   -7.4332072    16.768482  0.018883425  0.021523188            4 
   75000   0.82978744   -7.4543985    16.722495   0.01858055   0.02128571            3 
   76000   0.79920329   -7.5563286    16.942161  0.018576931  0.021053386            3 
   77000   0.75199537   -7.5410688    16.816507  0.018199683  0.020813885            2 
   78000   0.75793323   -7.5413757    16.939272  0.018097513  0.020573425            2 
   79000    0.7681806    -7.527393    17.027306  0.017961293  0.020334566            2 
   80000   0.73348382   -7.5621765    17.122617  0.017836059  0.020087651            2 
   81000   0.75325736   -7.5910525    17.133506  0.017627064  0.019844218            2 
   82000   0.76734939   -7.6185059    17.229226  0.017509376  0.019604218       -1e+20 
   83000   0.73312752   -7.6177164    17.214916  0.017284052  0.019370253            4 
   84000   0.75556373   -7.6258717    17.358662  0.017220895  0.019139558            2 
   85000   0.77332956   -7.6720946    17.367982  0.017027434  0.018906756            1 
   86000   0.74843338   -7.6083174    17.285322  0.016749343  0.018671071            1 
   87000   0.72958092   -7.6923222    17.296647  0.016567669  0.018435969            1 
   88000   0.72762536   -7.6767685    17.282451  0.016365957  0.018200202            8 
   89000   0.69107208   -7.6956978    17.402024   0.01629403  0.017966727            4 
   90000   0.73480849   -7.7197121    17.367763  0.016081262  0.017735336            2 
   91000   0.71251243   -7.6995606    17.374421  0.015910642  0.017504694            3 
   92000   0.67636678   -7.7563878    17.499834  0.015851299  0.017281458            2 
   93000   0.72168313   -7.7872713    17.526175  0.015704458  0.017059947            2 
   94000   0.62708712   -7.7426849    17.476785  0.015493603  0.016839408            2 
   95000   0.70934767   -7.8382228    17.573024  0.015414933  0.016619872            2 
   96000   0.67292696   -7.7865816     17.57958  0.015260052  0.016403998            2 
   97000   0.65191109   -7.8832404    17.553301  0.015080155  0.016192009            3 
   98000   0.66671057   -7.8135109    17.512094  0.014891236  0.015981087            1 
   99000   0.63313718   -7.8063985    17.530881  0.014756633  0.015772168            2 
  100000   0.60800655   -7.8355315    17.507401  0.014589501  0.015563181            1 
  101000   0.59853566   -7.8963715    17.437698   0.01438754  0.015355161            2 
  102000   0.62702266   -7.8930255    17.566292  0.014351546  0.015148068            1 
  103000   0.60961292   -7.9040882    17.530842  0.014183529  0.014945379            2 
  104000   0.62063196   -7.8749733    17.501209  0.014023404  0.014745882            2 
  105000    0.6039937   -7.9128958    17.486766  0.013878385  0.014548443            2 
  106000   0.59758839   -7.9078276    17.594507   0.01383216  0.014354079            2 
  107000   0.62366277   -7.9803118    17.647723  0.013744333  0.014165252            4 
  108000   0.56725245   -7.9550565    17.580426  0.013565144  0.013979487            2 
  109000   0.58557462   -7.9803612    17.661209  0.013502453  0.013798118            2 
  110000   0.58402137   -7.9545826    17.639623  0.013363351  0.013618521            3 
  111000   0.56034561   -8.0105929    17.605732  0.013217516  0.013442918            3 
  112000   0.54544391   -8.0108828    17.583423  0.013082904  0.013268978            2 
Loop time of 184.736 on 12 procs for 100000 steps with 864 atoms

Performance: 93538.969 tau/day, 541.313 timesteps/s
99.3% CPU use with 12 MPI tasks x no OpenMP threads

MPI task timing breakdown:
Section |  min time  |  avg time  |  max time  |%varavg| %total
---------------------------------------------------------------
Pair    | 11.177     | 12.068     | 12.813     |  17.9 |  6.53
Neigh   | 1.2118     | 1.25       | 1.2858     |   2.1 |  0.68
Comm    | 6.3364     | 7.2427     | 8.2649     |  25.8 |  3.92
Output  | 0.16548    | 0.16558    | 0.16645    |   0.1 |  0.09
Modify  | 162.52     | 162.92     | 163.2      |   1.5 | 88.19
Other   |            | 1.092      |            |       |  0.59

Nlocal:        72.0000 ave          77 max          66 min
Histogram: 1 0 0 1 2 4 2 0 1 1
Nghost:        1838.42 ave        1853 max        1826 min
Histogram: 3 1 2 0 0 1 1 0 2 2
Neighs:        10401.5 ave       11826 max        9429 min
Histogram: 1 3 1 1 2 2 1 0 0 1
FullNghs:      20805.6 ave       22178 max       19024 min
Histogram: 1 0 0 1 2 3 2 1 1 1

Total # of neighbors = 249667
Ave neighs/atom = 288.96644
Neighbor list builds = 5151
Dangerous builds = 0

#clear
#
#next RN
#
#jump SELF
Total wall time: 0:03:06
